** Generated by AutoCalculix API for WHT Topography Monitor
*NODE
1, 0, 0, -7.562011169
2, 1800, 0, -7.562011169
3, 1800, 1200, -7.500004845
4, 0, 1200, -7.500004845
5, -16.32076804, -16.32076804, 35
6, 1816.320768, -16.32076804, 35
7, 1816.320768, 1216.320768, 35
8, -16.32076804, 1216.320768, 35
9, -16.32076804, -16.32076804, 47
10, 1816.320768, -16.32076804, 47
11, 1816.320768, 1216.320768, 47
12, -16.32076804, 1216.320768, 47
13, -11.32076804, -11.32076804, 47
14, 1811.320768, -11.32076804, 47
15, 1811.320768, 1211.320768, 47
16, -11.32076804, 1211.320768, 47
17, -11.32076804, -11.32076804, 37
18, 1811.320768, -11.32076804, 37
19, 1811.320768, 1211.320768, 37
20, -11.32076804, 1211.320768, 37
21, -1.320768035, -1.320768035, 37
22, 1801.320768, -1.320768035, 37
23, 1801.320768, 1201.320768, 37
24, -1.320768035, 1201.320768, 37
25, 30, 0, -7.50042679
26, 60, 0, -7.500772189
27, 90, 0, -7.501781956
28, 120, 0, -7.501009214
29, 150, 0, -7.500000039
30, 180, 0, -7.500738799
31, 210, 0, -11.2507388
32, 240, 0, -15
33, 270, 0, -13.24721994
34, 300, 0, -9.497218645
35, 330, 0, -3.749998704
36, 360, 0, -3.642919299e-14
37, 390, 0, -3.749973056
38, 420, 0, -7.499247625
39, 450, 0, -3.749274569
40, 480, 0, -2.518818487e-14
41, 510, 0, 0
42, 540, 0, 0
43, 570, 0, 0
44, 600, 0, 0
45, 630, 0, -9.575673586e-15
46, 660, 0, -2.319728119
47, 690, 0, -6.069727838
48, 720, 0, -7.499990956
49, 750, 0, -7.499627446
50, 780, 0, -7.603606191
51, 810, 0, -11.35396998
52, 840, 0, -15
53, 870, 0, -11.41182533
54, 900, 0, -7.823650654
55, 930, 0, -11.41182533
56, 960, 0, -15
57, 990, 0, -11.35396998
58, 1020, 0, -7.603606191
59, 1050, 0, -7.499627446
60, 1080, 0, -7.499990956
61, 1110, 0, -6.069727838
62, 1140, 0, -2.319728119
63, 1170, 0, -9.575673586e-15
64, 1200, 0, 0
65, 1230, 0, 0
66, 1260, 0, 0
67, 1290, 0, 0
68, 1320, 0, -2.518818487e-14
69, 1350, 0, -3.749274569
70, 1380, 0, -7.499247625
71, 1410, 0, -3.749973056
72, 1440, 0, -3.642919299e-14
73, 1470, 0, -3.749998704
74, 1500, 0, -9.497218645
75, 1530, 0, -13.24721994
76, 1560, 0, -15
77, 1590, 0, -11.2507388
78, 1620, 0, -7.500738799
79, 1650, 0, -7.500000039
80, 1680, 0, -7.501009214
81, 1710, 0, -7.501781956
82, 1740, 0, -7.500772189
83, 1770, 0, -7.50042679
84, 1800, 30, -9.931123893
85, 1800, 60, -13.62916185
86, 1800, 90, -14.97710701
87, 1800, 120, -14.98256104
88, 1800, 150, -15
89, 1800, 180, -15
90, 1800, 210, -15
91, 1800, 240, -15
92, 1800, 270, -15
93, 1800, 300, -15
94, 1800, 330, -15
95, 1800, 360, -15
96, 1800, 390, -15
97, 1800, 420, -14.99987287
98, 1800, 450, -13.2435246
99, 1800, 480, -13.24365174
100, 1800, 510, -13.38229877
101, 1800, 540, -9.62855041
102, 1800, 570, -3.746251639
103, 1800, 600, -2.498001805e-15
104, 1800, 630, 0
105, 1800, 660, 0
106, 1800, 690, -7.160938508e-14
107, 1800, 720, -3.750002738
108, 1800, 750, -11.25000274
109, 1800, 780, -15
110, 1800, 810, -15
111, 1800, 840, -15
112, 1800, 870, -15
113, 1800, 900, -15
114, 1800, 930, -15
115, 1800, 960, -15
116, 1800, 990, -15
117, 1800, 1020, -11.25041955
118, 1800, 1050, -7.500947332
119, 1800, 1080, -11.25052778
120, 1800, 1110, -15
121, 1800, 1140, -13.14537412
122, 1800, 1170, -9.395377734
123, 1770, 1200, -7.50001822
124, 1740, 1200, -7.500020501
125, 1710, 1200, -7.500053139
126, 1680, 1200, -7.507692228
127, 1650, 1200, -7.507658549
128, 1620, 1200, -7.495366252
129, 1590, 1200, -3.745351947
130, 1560, 1200, -8.326672684e-16
131, 1530, 1200, 0
132, 1500, 1200, 0
133, 1470, 1200, 0
134, 1440, 1200, 0
135, 1410, 1200, 0
136, 1380, 1200, 0
137, 1350, 1200, 0
138, 1320, 1200, 0
139, 1290, 1200, 0
140, 1260, 1200, -3.746784094
141, 1230, 1200, -7.496786153
142, 1200, 1200, -11.25000206
143, 1170, 1200, -15
144, 1140, 1200, -15
145, 1110, 1200, -11.25000494
146, 1080, 1200, -3.750004937
147, 1050, 1200, -2.289834988e-15
148, 1020, 1200, 0
149, 990, 1200, 0
150, 960, 1200, 0
151, 930, 1200, 0
152, 900, 1200, 0
153, 870, 1200, 0
154, 840, 1200, 0
155, 810, 1200, 0
156, 780, 1200, 0
157, 750, 1200, -2.289834988e-15
158, 720, 1200, -3.750004937
159, 690, 1200, -11.25000494
160, 660, 1200, -15
161, 630, 1200, -15
162, 600, 1200, -11.25000206
163, 570, 1200, -7.496786153
164, 540, 1200, -3.746784094
165, 510, 1200, 0
166, 480, 1200, 0
167, 450, 1200, 0
168, 420, 1200, 0
169, 390, 1200, 0
170, 360, 1200, 0
171, 330, 1200, 0
172, 300, 1200, 0
173, 270, 1200, 0
174, 240, 1200, -8.326672684e-16
175, 210, 1200, -3.745351947
176, 180, 1200, -7.495366252
177, 150, 1200, -7.507658549
178, 120, 1200, -7.507692228
179, 90, 1200, -7.500053139
180, 60, 1200, -7.500020501
181, 30, 1200, -7.50001822
182, 0, 1170, -9.395377734
183, 0, 1140, -13.14537412
184, 0, 1110, -15
185, 0, 1080, -11.25052778
186, 0, 1050, -7.500947332
187, 0, 1020, -11.25041955
188, 0, 990, -15
189, 0, 960, -15
190, 0, 930, -15
191, 0, 900, -15
192, 0, 870, -15
193, 0, 840, -15
194, 0, 810, -15
195, 0, 780, -15
196, 0, 750, -11.25000274
197, 0, 720, -3.750002738
198, 0, 690, -7.160938508e-14
199, 0, 660, 0
200, 0, 630, 0
201, 0, 600, -2.498001805e-15
202, 0, 570, -3.746251639
203, 0, 540, -9.62855041
204, 0, 510, -13.38229877
205, 0, 480, -13.24365174
206, 0, 450, -13.2435246
207, 0, 420, -14.99987287
208, 0, 390, -15
209, 0, 360, -15
210, 0, 330, -15
211, 0, 300, -15
212, 0, 270, -15
213, 0, 240, -15
214, 0, 210, -15
215, 0, 180, -15
216, 0, 150, -15
217, 0, 120, -14.98256104
218, 0, 90, -14.97710701
219, 0, 60, -13.62916185
220, 0, 30, -9.931123893
221, 14.22325757, -16.32076804, 35
222, 44.76728317, -16.32076804, 35
223, 75.31130877, -16.32076804, 35
224, 105.8553344, -16.32076804, 35
225, 136.39936, -16.32076804, 35
226, 166.9433856, -16.32076804, 35
227, 197.4874112, -16.32076804, 35
228, 228.0314368, -16.32076804, 35
229, 258.5754624, -16.32076804, 35
230, 289.119488, -16.32076804, 35
231, 319.6635136, -16.32076804, 35
232, 350.2075392, -16.32076804, 35
233, 380.7515648, -16.32076804, 35
234, 411.2955904, -16.32076804, 35
235, 441.839616, -16.32076804, 35
236, 472.3836416, -16.32076804, 35
237, 502.9276672, -16.32076804, 35
238, 533.4716928, -16.32076804, 35
239, 564.0157184, -16.32076804, 35
240, 594.559744, -16.32076804, 35
241, 625.1037696, -16.32076804, 35
242, 655.6477952, -16.32076804, 35
243, 686.1918208, -16.32076804, 35
244, 716.7358464, -16.32076804, 35
245, 747.279872, -16.32076804, 35
246, 777.8238976, -16.32076804, 35
247, 808.3679232, -16.32076804, 35
248, 838.9119488, -16.32076804, 35
249, 869.4559744, -16.32076804, 35
250, 900, -16.32076804, 35
251, 930.5440256, -16.32076804, 35
252, 961.0880512, -16.32076804, 35
253, 991.6320768, -16.32076804, 35
254, 1022.176102, -16.32076804, 35
255, 1052.720128, -16.32076804, 35
256, 1083.264154, -16.32076804, 35
257, 1113.808179, -16.32076804, 35
258, 1144.352205, -16.32076804, 35
259, 1174.89623, -16.32076804, 35
260, 1205.440256, -16.32076804, 35
261, 1235.984282, -16.32076804, 35
262, 1266.528307, -16.32076804, 35
263, 1297.072333, -16.32076804, 35
264, 1327.616358, -16.32076804, 35
265, 1358.160384, -16.32076804, 35
266, 1388.70441, -16.32076804, 35
267, 1419.248435, -16.32076804, 35
268, 1449.792461, -16.32076804, 35
269, 1480.336486, -16.32076804, 35
270, 1510.880512, -16.32076804, 35
271, 1541.424538, -16.32076804, 35
272, 1571.968563, -16.32076804, 35
273, 1602.512589, -16.32076804, 35
274, 1633.056614, -16.32076804, 35
275, 1663.60064, -16.32076804, 35
276, 1694.144666, -16.32076804, 35
277, 1724.688691, -16.32076804, 35
278, 1755.232717, -16.32076804, 35
279, 1785.776742, -16.32076804, 35
280, 1816.320768, 14.49527037, 35
281, 1816.320768, 45.31130877, 35
282, 1816.320768, 76.12734717, 35
283, 1816.320768, 106.9433856, 35
284, 1816.320768, 137.759424, 35
285, 1816.320768, 168.5754624, 35
286, 1816.320768, 199.3915008, 35
287, 1816.320768, 230.2075392, 35
288, 1816.320768, 261.0235776, 35
289, 1816.320768, 291.839616, 35
290, 1816.320768, 322.6556544, 35
291, 1816.320768, 353.4716928, 35
292, 1816.320768, 384.2877312, 35
293, 1816.320768, 415.1037696, 35
294, 1816.320768, 445.919808, 35
295, 1816.320768, 476.7358464, 35
296, 1816.320768, 507.5518848, 35
297, 1816.320768, 538.3679232, 35
298, 1816.320768, 569.1839616, 35
299, 1816.320768, 600, 35
300, 1816.320768, 630.8160384, 35
301, 1816.320768, 661.6320768, 35
302, 1816.320768, 692.4481152, 35
303, 1816.320768, 723.2641536, 35
304, 1816.320768, 754.080192, 35
305, 1816.320768, 784.8962304, 35
306, 1816.320768, 815.7122688, 35
307, 1816.320768, 846.5283072, 35
308, 1816.320768, 877.3443456, 35
309, 1816.320768, 908.160384, 35
310, 1816.320768, 938.9764224, 35
311, 1816.320768, 969.7924608, 35
312, 1816.320768, 1000.608499, 35
313, 1816.320768, 1031.424538, 35
314, 1816.320768, 1062.240576, 35
315, 1816.320768, 1093.056614, 35
316, 1816.320768, 1123.872653, 35
317, 1816.320768, 1154.688691, 35
318, 1816.320768, 1185.50473, 35
319, 1785.776742, 1216.320768, 35
320, 1755.232717, 1216.320768, 35
321, 1724.688691, 1216.320768, 35
322, 1694.144666, 1216.320768, 35
323, 1663.60064, 1216.320768, 35
324, 1633.056614, 1216.320768, 35
325, 1602.512589, 1216.320768, 35
326, 1571.968563, 1216.320768, 35
327, 1541.424538, 1216.320768, 35
328, 1510.880512, 1216.320768, 35
329, 1480.336486, 1216.320768, 35
330, 1449.792461, 1216.320768, 35
331, 1419.248435, 1216.320768, 35
332, 1388.70441, 1216.320768, 35
333, 1358.160384, 1216.320768, 35
334, 1327.616358, 1216.320768, 35
335, 1297.072333, 1216.320768, 35
336, 1266.528307, 1216.320768, 35
337, 1235.984282, 1216.320768, 35
338, 1205.440256, 1216.320768, 35
339, 1174.89623, 1216.320768, 35
340, 1144.352205, 1216.320768, 35
341, 1113.808179, 1216.320768, 35
342, 1083.264154, 1216.320768, 35
343, 1052.720128, 1216.320768, 35
344, 1022.176102, 1216.320768, 35
345, 991.6320768, 1216.320768, 35
346, 961.0880512, 1216.320768, 35
347, 930.5440256, 1216.320768, 35
348, 900, 1216.320768, 35
349, 869.4559744, 1216.320768, 35
350, 838.9119488, 1216.320768, 35
351, 808.3679232, 1216.320768, 35
352, 777.8238976, 1216.320768, 35
353, 747.279872, 1216.320768, 35
354, 716.7358464, 1216.320768, 35
355, 686.1918208, 1216.320768, 35
356, 655.6477952, 1216.320768, 35
357, 625.1037696, 1216.320768, 35
358, 594.559744, 1216.320768, 35
359, 564.0157184, 1216.320768, 35
360, 533.4716928, 1216.320768, 35
361, 502.9276672, 1216.320768, 35
362, 472.3836416, 1216.320768, 35
363, 441.839616, 1216.320768, 35
364, 411.2955904, 1216.320768, 35
365, 380.7515648, 1216.320768, 35
366, 350.2075392, 1216.320768, 35
367, 319.6635136, 1216.320768, 35
368, 289.119488, 1216.320768, 35
369, 258.5754624, 1216.320768, 35
370, 228.0314368, 1216.320768, 35
371, 197.4874112, 1216.320768, 35
372, 166.9433856, 1216.320768, 35
373, 136.39936, 1216.320768, 35
374, 105.8553344, 1216.320768, 35
375, 75.31130877, 1216.320768, 35
376, 44.76728317, 1216.320768, 35
377, 14.22325757, 1216.320768, 35
378, -16.32076804, 1185.50473, 35
379, -16.32076804, 1154.688691, 35
380, -16.32076804, 1123.872653, 35
381, -16.32076804, 1093.056614, 35
382, -16.32076804, 1062.240576, 35
383, -16.32076804, 1031.424538, 35
384, -16.32076804, 1000.608499, 35
385, -16.32076804, 969.7924608, 35
386, -16.32076804, 938.9764224, 35
387, -16.32076804, 908.160384, 35
388, -16.32076804, 877.3443456, 35
389, -16.32076804, 846.5283072, 35
390, -16.32076804, 815.7122688, 35
391, -16.32076804, 784.8962304, 35
392, -16.32076804, 754.080192, 35
393, -16.32076804, 723.2641536, 35
394, -16.32076804, 692.4481152, 35
395, -16.32076804, 661.6320768, 35
396, -16.32076804, 630.8160384, 35
397, -16.32076804, 600, 35
398, -16.32076804, 569.1839616, 35
399, -16.32076804, 538.3679232, 35
400, -16.32076804, 507.5518848, 35
401, -16.32076804, 476.7358464, 35
402, -16.32076804, 445.919808, 35
403, -16.32076804, 415.1037696, 35
404, -16.32076804, 384.2877312, 35
405, -16.32076804, 353.4716928, 35
406, -16.32076804, 322.6556544, 35
407, -16.32076804, 291.839616, 35
408, -16.32076804, 261.0235776, 35
409, -16.32076804, 230.2075392, 35
410, -16.32076804, 199.3915008, 35
411, -16.32076804, 168.5754624, 35
412, -16.32076804, 137.759424, 35
413, -16.32076804, 106.9433856, 35
414, -16.32076804, 76.12734717, 35
415, -16.32076804, 45.31130877, 35
416, -16.32076804, 14.49527037, 35
417, -4.080192009, -4.080192009, 1.157837282
418, -8.160384018, -8.160384018, 17.5
419, -12.24057603, -12.24057603, 26.25
420, 1804.080192, -4.080192009, 1.157837282
421, 1808.160384, -8.160384018, 17.5
422, 1812.240576, -12.24057603, 26.25
423, 1804.080192, 1204.080192, 1.249998444
424, 1808.160384, 1208.160384, 17.5
425, 1812.240576, 1212.240576, 26.25
426, -4.080192009, 1204.080192, 1.249998444
427, -8.160384018, 1208.160384, 17.5
428, -12.24057603, 1212.240576, 26.25
429, 13.23796642, -16.32076804, 47
430, 42.79670087, -16.32076804, 47
431, 72.35543532, -16.32076804, 47
432, 101.9141698, -16.32076804, 47
433, 131.4729042, -16.32076804, 47
434, 161.0316387, -16.32076804, 47
435, 190.5903731, -16.32076804, 47
436, 220.1491076, -16.32076804, 47
437, 249.707842, -16.32076804, 47
438, 279.2665765, -16.32076804, 47
439, 308.8253109, -16.32076804, 47
440, 338.3840454, -16.32076804, 47
441, 367.9427799, -16.32076804, 47
442, 397.5015143, -16.32076804, 47
443, 427.0602488, -16.32076804, 47
444, 456.6189832, -16.32076804, 47
445, 486.1777177, -16.32076804, 47
446, 515.7364521, -16.32076804, 47
447, 545.2951866, -16.32076804, 47
448, 574.853921, -16.32076804, 47
449, 604.4126555, -16.32076804, 47
450, 633.9713899, -16.32076804, 47
451, 663.5301244, -16.32076804, 47
452, 693.0888588, -16.32076804, 47
453, 722.6475933, -16.32076804, 47
454, 752.2063277, -16.32076804, 47
455, 781.7650622, -16.32076804, 47
456, 811.3237966, -16.32076804, 47
457, 840.8825311, -16.32076804, 47
458, 870.4412655, -16.32076804, 47
459, 900, -16.32076804, 47
460, 929.5587345, -16.32076804, 47
461, 959.1174689, -16.32076804, 47
462, 988.6762034, -16.32076804, 47
463, 1018.234938, -16.32076804, 47
464, 1047.793672, -16.32076804, 47
465, 1077.352407, -16.32076804, 47
466, 1106.911141, -16.32076804, 47
467, 1136.469876, -16.32076804, 47
468, 1166.02861, -16.32076804, 47
469, 1195.587345, -16.32076804, 47
470, 1225.146079, -16.32076804, 47
471, 1254.704813, -16.32076804, 47
472, 1284.263548, -16.32076804, 47
473, 1313.822282, -16.32076804, 47
474, 1343.381017, -16.32076804, 47
475, 1372.939751, -16.32076804, 47
476, 1402.498486, -16.32076804, 47
477, 1432.05722, -16.32076804, 47
478, 1461.615955, -16.32076804, 47
479, 1491.174689, -16.32076804, 47
480, 1520.733424, -16.32076804, 47
481, 1550.292158, -16.32076804, 47
482, 1579.850892, -16.32076804, 47
483, 1609.409627, -16.32076804, 47
484, 1638.968361, -16.32076804, 47
485, 1668.527096, -16.32076804, 47
486, 1698.08583, -16.32076804, 47
487, 1727.644565, -16.32076804, 47
488, 1757.203299, -16.32076804, 47
489, 1786.762034, -16.32076804, 47
490, 1816.320768, 14.49527037, 47
491, 1816.320768, 45.31130877, 47
492, 1816.320768, 76.12734717, 47
493, 1816.320768, 106.9433856, 47
494, 1816.320768, 137.759424, 47
495, 1816.320768, 168.5754624, 47
496, 1816.320768, 199.3915008, 47
497, 1816.320768, 230.2075392, 47
498, 1816.320768, 261.0235776, 47
499, 1816.320768, 291.839616, 47
500, 1816.320768, 322.6556544, 47
501, 1816.320768, 353.4716928, 47
502, 1816.320768, 384.2877312, 47
503, 1816.320768, 415.1037696, 47
504, 1816.320768, 445.919808, 47
505, 1816.320768, 476.7358464, 47
506, 1816.320768, 507.5518848, 47
507, 1816.320768, 538.3679232, 47
508, 1816.320768, 569.1839616, 47
509, 1816.320768, 600, 47
510, 1816.320768, 630.8160384, 47
511, 1816.320768, 661.6320768, 47
512, 1816.320768, 692.4481152, 47
513, 1816.320768, 723.2641536, 47
514, 1816.320768, 754.080192, 47
515, 1816.320768, 784.8962304, 47
516, 1816.320768, 815.7122688, 47
517, 1816.320768, 846.5283072, 47
518, 1816.320768, 877.3443456, 47
519, 1816.320768, 908.160384, 47
520, 1816.320768, 938.9764224, 47
521, 1816.320768, 969.7924608, 47
522, 1816.320768, 1000.608499, 47
523, 1816.320768, 1031.424538, 47
524, 1816.320768, 1062.240576, 47
525, 1816.320768, 1093.056614, 47
526, 1816.320768, 1123.872653, 47
527, 1816.320768, 1154.688691, 47
528, 1816.320768, 1185.50473, 47
529, 1785.776742, 1216.320768, 47
530, 1755.232717, 1216.320768, 47
531, 1724.688691, 1216.320768, 47
532, 1694.144666, 1216.320768, 47
533, 1663.60064, 1216.320768, 47
534, 1633.056614, 1216.320768, 47
535, 1602.512589, 1216.320768, 47
536, 1571.968563, 1216.320768, 47
537, 1541.424538, 1216.320768, 47
538, 1510.880512, 1216.320768, 47
539, 1480.336486, 1216.320768, 47
540, 1449.792461, 1216.320768, 47
541, 1419.248435, 1216.320768, 47
542, 1388.70441, 1216.320768, 47
543, 1358.160384, 1216.320768, 47
544, 1327.616358, 1216.320768, 47
545, 1297.072333, 1216.320768, 47
546, 1266.528307, 1216.320768, 47
547, 1235.984282, 1216.320768, 47
548, 1205.440256, 1216.320768, 47
549, 1174.89623, 1216.320768, 47
550, 1144.352205, 1216.320768, 47
551, 1113.808179, 1216.320768, 47
552, 1083.264154, 1216.320768, 47
553, 1052.720128, 1216.320768, 47
554, 1022.176102, 1216.320768, 47
555, 991.6320768, 1216.320768, 47
556, 961.0880512, 1216.320768, 47
557, 930.5440256, 1216.320768, 47
558, 900, 1216.320768, 47
559, 869.4559744, 1216.320768, 47
560, 838.9119488, 1216.320768, 47
561, 808.3679232, 1216.320768, 47
562, 777.8238976, 1216.320768, 47
563, 747.279872, 1216.320768, 47
564, 716.7358464, 1216.320768, 47
565, 686.1918208, 1216.320768, 47
566, 655.6477952, 1216.320768, 47
567, 625.1037696, 1216.320768, 47
568, 594.559744, 1216.320768, 47
569, 564.0157184, 1216.320768, 47
570, 533.4716928, 1216.320768, 47
571, 502.9276672, 1216.320768, 47
572, 472.3836416, 1216.320768, 47
573, 441.839616, 1216.320768, 47
574, 411.2955904, 1216.320768, 47
575, 380.7515648, 1216.320768, 47
576, 350.2075392, 1216.320768, 47
577, 319.6635136, 1216.320768, 47
578, 289.119488, 1216.320768, 47
579, 258.5754624, 1216.320768, 47
580, 228.0314368, 1216.320768, 47
581, 197.4874112, 1216.320768, 47
582, 166.9433856, 1216.320768, 47
583, 136.39936, 1216.320768, 47
584, 105.8553344, 1216.320768, 47
585, 75.31130877, 1216.320768, 47
586, 44.76728317, 1216.320768, 47
587, 14.22325757, 1216.320768, 47
588, -16.32076804, 1185.50473, 47
589, -16.32076804, 1154.688691, 47
590, -16.32076804, 1123.872653, 47
591, -16.32076804, 1093.056614, 47
592, -16.32076804, 1062.240576, 47
593, -16.32076804, 1031.424538, 47
594, -16.32076804, 1000.608499, 47
595, -16.32076804, 969.7924608, 47
596, -16.32076804, 938.9764224, 47
597, -16.32076804, 908.160384, 47
598, -16.32076804, 877.3443456, 47
599, -16.32076804, 846.5283072, 47
600, -16.32076804, 815.7122688, 47
601, -16.32076804, 784.8962304, 47
602, -16.32076804, 754.080192, 47
603, -16.32076804, 723.2641536, 47
604, -16.32076804, 692.4481152, 47
605, -16.32076804, 661.6320768, 47
606, -16.32076804, 630.8160384, 47
607, -16.32076804, 600, 47
608, -16.32076804, 569.1839616, 47
609, -16.32076804, 538.3679232, 47
610, -16.32076804, 507.5518848, 47
611, -16.32076804, 476.7358464, 47
612, -16.32076804, 445.919808, 47
613, -16.32076804, 415.1037696, 47
614, -16.32076804, 384.2877312, 47
615, -16.32076804, 353.4716928, 47
616, -16.32076804, 322.6556544, 47
617, -16.32076804, 291.839616, 47
618, -16.32076804, 261.0235776, 47
619, -16.32076804, 230.2075392, 47
620, -16.32076804, 199.3915008, 47
621, -16.32076804, 168.5754624, 47
622, -16.32076804, 137.759424, 47
623, -16.32076804, 106.9433856, 47
624, -16.32076804, 76.12734717, 47
625, -16.32076804, 45.31130877, 47
626, -16.32076804, 14.49527037, 47
627, 18.07667609, -11.32076804, 47
628, 47.47412022, -11.32076804, 47
629, 76.87156436, -11.32076804, 47
630, 106.2690085, -11.32076804, 47
631, 135.6664526, -11.32076804, 47
632, 165.0638967, -11.32076804, 47
633, 194.4613409, -11.32076804, 47
634, 223.858785, -11.32076804, 47
635, 253.2562291, -11.32076804, 47
636, 282.6536733, -11.32076804, 47
637, 312.0511174, -11.32076804, 47
638, 341.4485615, -11.32076804, 47
639, 370.8460057, -11.32076804, 47
640, 400.2434498, -11.32076804, 47
641, 429.6408939, -11.32076804, 47
642, 459.038338, -11.32076804, 47
643, 488.4357822, -11.32076804, 47
644, 517.8332263, -11.32076804, 47
645, 547.2306704, -11.32076804, 47
646, 576.6281146, -11.32076804, 47
647, 606.0255587, -11.32076804, 47
648, 635.4230028, -11.32076804, 47
649, 664.820447, -11.32076804, 47
650, 694.2178911, -11.32076804, 47
651, 723.6153352, -11.32076804, 47
652, 753.0127793, -11.32076804, 47
653, 782.4102235, -11.32076804, 47
654, 811.8076676, -11.32076804, 47
655, 841.2051117, -11.32076804, 47
656, 870.6025559, -11.32076804, 47
657, 900, -11.32076804, 47
658, 929.3974441, -11.32076804, 47
659, 958.7948883, -11.32076804, 47
660, 988.1923324, -11.32076804, 47
661, 1017.589777, -11.32076804, 47
662, 1046.987221, -11.32076804, 47
663, 1076.384665, -11.32076804, 47
664, 1105.782109, -11.32076804, 47
665, 1135.179553, -11.32076804, 47
666, 1164.576997, -11.32076804, 47
667, 1193.974441, -11.32076804, 47
668, 1223.371885, -11.32076804, 47
669, 1252.76933, -11.32076804, 47
670, 1282.166774, -11.32076804, 47
671, 1311.564218, -11.32076804, 47
672, 1340.961662, -11.32076804, 47
673, 1370.359106, -11.32076804, 47
674, 1399.75655, -11.32076804, 47
675, 1429.153994, -11.32076804, 47
676, 1458.551438, -11.32076804, 47
677, 1487.948883, -11.32076804, 47
678, 1517.346327, -11.32076804, 47
679, 1546.743771, -11.32076804, 47
680, 1576.141215, -11.32076804, 47
681, 1605.538659, -11.32076804, 47
682, 1634.936103, -11.32076804, 47
683, 1664.333547, -11.32076804, 47
684, 1693.730992, -11.32076804, 47
685, 1723.128436, -11.32076804, 47
686, 1752.52588, -11.32076804, 47
687, 1781.923324, -11.32076804, 47
688, 1811.320768, 19.24527037, 47
689, 1811.320768, 49.81130877, 47
690, 1811.320768, 80.37734717, 47
691, 1811.320768, 110.9433856, 47
692, 1811.320768, 141.509424, 47
693, 1811.320768, 172.0754624, 47
694, 1811.320768, 202.6415008, 47
695, 1811.320768, 233.2075392, 47
696, 1811.320768, 263.7735776, 47
697, 1811.320768, 294.339616, 47
698, 1811.320768, 324.9056544, 47
699, 1811.320768, 355.4716928, 47
700, 1811.320768, 386.0377312, 47
701, 1811.320768, 416.6037696, 47
702, 1811.320768, 447.169808, 47
703, 1811.320768, 477.7358464, 47
704, 1811.320768, 508.3018848, 47
705, 1811.320768, 538.8679232, 47
706, 1811.320768, 569.4339616, 47
707, 1811.320768, 600, 47
708, 1811.320768, 630.5660384, 47
709, 1811.320768, 661.1320768, 47
710, 1811.320768, 691.6981152, 47
711, 1811.320768, 722.2641536, 47
712, 1811.320768, 752.830192, 47
713, 1811.320768, 783.3962304, 47
714, 1811.320768, 813.9622688, 47
715, 1811.320768, 844.5283072, 47
716, 1811.320768, 875.0943456, 47
717, 1811.320768, 905.660384, 47
718, 1811.320768, 936.2264224, 47
719, 1811.320768, 966.7924608, 47
720, 1811.320768, 997.3584992, 47
721, 1811.320768, 1027.924538, 47
722, 1811.320768, 1058.490576, 47
723, 1811.320768, 1089.056614, 47
724, 1811.320768, 1119.622653, 47
725, 1811.320768, 1150.188691, 47
726, 1811.320768, 1180.75473, 47
727, 1780.943409, 1211.320768, 47
728, 1750.56605, 1211.320768, 47
729, 1720.188691, 1211.320768, 47
730, 1689.811332, 1211.320768, 47
731, 1659.433973, 1211.320768, 47
732, 1629.056614, 1211.320768, 47
733, 1598.679255, 1211.320768, 47
734, 1568.301897, 1211.320768, 47
735, 1537.924538, 1211.320768, 47
736, 1507.547179, 1211.320768, 47
737, 1477.16982, 1211.320768, 47
738, 1446.792461, 1211.320768, 47
739, 1416.415102, 1211.320768, 47
740, 1386.037743, 1211.320768, 47
741, 1355.660384, 1211.320768, 47
742, 1325.283025, 1211.320768, 47
743, 1294.905666, 1211.320768, 47
744, 1264.528307, 1211.320768, 47
745, 1234.150948, 1211.320768, 47
746, 1203.773589, 1211.320768, 47
747, 1173.39623, 1211.320768, 47
748, 1143.018871, 1211.320768, 47
749, 1112.641513, 1211.320768, 47
750, 1082.264154, 1211.320768, 47
751, 1051.886795, 1211.320768, 47
752, 1021.509436, 1211.320768, 47
753, 991.1320768, 1211.320768, 47
754, 960.7547179, 1211.320768, 47
755, 930.3773589, 1211.320768, 47
756, 900, 1211.320768, 47
757, 869.6226411, 1211.320768, 47
758, 839.2452821, 1211.320768, 47
759, 808.8679232, 1211.320768, 47
760, 778.4905643, 1211.320768, 47
761, 748.1132053, 1211.320768, 47
762, 717.7358464, 1211.320768, 47
763, 687.3584875, 1211.320768, 47
764, 656.9811285, 1211.320768, 47
765, 626.6037696, 1211.320768, 47
766, 596.2264107, 1211.320768, 47
767, 565.8490517, 1211.320768, 47
768, 535.4716928, 1211.320768, 47
769, 505.0943339, 1211.320768, 47
770, 474.7169749, 1211.320768, 47
771, 444.339616, 1211.320768, 47
772, 413.962257, 1211.320768, 47
773, 383.5848981, 1211.320768, 47
774, 353.2075392, 1211.320768, 47
775, 322.8301802, 1211.320768, 47
776, 292.4528213, 1211.320768, 47
777, 262.0754624, 1211.320768, 47
778, 231.6981034, 1211.320768, 47
779, 201.3207445, 1211.320768, 47
780, 170.9433856, 1211.320768, 47
781, 140.5660266, 1211.320768, 47
782, 110.1886677, 1211.320768, 47
783, 79.81130877, 1211.320768, 47
784, 49.43394983, 1211.320768, 47
785, 19.0565909, 1211.320768, 47
786, -11.32076804, 1180.75473, 47
787, -11.32076804, 1150.188691, 47
788, -11.32076804, 1119.622653, 47
789, -11.32076804, 1089.056614, 47
790, -11.32076804, 1058.490576, 47
791, -11.32076804, 1027.924538, 47
792, -11.32076804, 997.3584992, 47
793, -11.32076804, 966.7924608, 47
794, -11.32076804, 936.2264224, 47
795, -11.32076804, 905.660384, 47
796, -11.32076804, 875.0943456, 47
797, -11.32076804, 844.5283072, 47
798, -11.32076804, 813.9622688, 47
799, -11.32076804, 783.3962304, 47
800, -11.32076804, 752.830192, 47
801, -11.32076804, 722.2641536, 47
802, -11.32076804, 691.6981152, 47
803, -11.32076804, 661.1320768, 47
804, -11.32076804, 630.5660384, 47
805, -11.32076804, 600, 47
806, -11.32076804, 569.4339616, 47
807, -11.32076804, 538.8679232, 47
808, -11.32076804, 508.3018848, 47
809, -11.32076804, 477.7358464, 47
810, -11.32076804, 447.169808, 47
811, -11.32076804, 416.6037696, 47
812, -11.32076804, 386.0377312, 47
813, -11.32076804, 355.4716928, 47
814, -11.32076804, 324.9056544, 47
815, -11.32076804, 294.339616, 47
816, -11.32076804, 263.7735776, 47
817, -11.32076804, 233.2075392, 47
818, -11.32076804, 202.6415008, 47
819, -11.32076804, 172.0754624, 47
820, -11.32076804, 141.509424, 47
821, -11.32076804, 110.9433856, 47
822, -11.32076804, 80.37734717, 47
823, -11.32076804, 49.81130877, 47
824, -11.32076804, 19.24527037, 47
825, 18.07667609, -11.32076804, 37
826, 47.47412022, -11.32076804, 37
827, 76.87156436, -11.32076804, 37
828, 106.2690085, -11.32076804, 37
829, 135.6664526, -11.32076804, 37
830, 165.0638967, -11.32076804, 37
831, 194.4613409, -11.32076804, 37
832, 223.858785, -11.32076804, 37
833, 253.2562291, -11.32076804, 37
834, 282.6536733, -11.32076804, 37
835, 312.0511174, -11.32076804, 37
836, 341.4485615, -11.32076804, 37
837, 370.8460057, -11.32076804, 37
838, 400.2434498, -11.32076804, 37
839, 429.6408939, -11.32076804, 37
840, 459.038338, -11.32076804, 37
841, 488.4357822, -11.32076804, 37
842, 517.8332263, -11.32076804, 37
843, 547.2306704, -11.32076804, 37
844, 576.6281146, -11.32076804, 37
845, 606.0255587, -11.32076804, 37
846, 635.4230028, -11.32076804, 37
847, 664.820447, -11.32076804, 37
848, 694.2178911, -11.32076804, 37
849, 723.6153352, -11.32076804, 37
850, 753.0127793, -11.32076804, 37
851, 782.4102235, -11.32076804, 37
852, 811.8076676, -11.32076804, 37
853, 841.2051117, -11.32076804, 37
854, 870.6025559, -11.32076804, 37
855, 900, -11.32076804, 37
856, 929.3974441, -11.32076804, 37
857, 958.7948883, -11.32076804, 37
858, 988.1923324, -11.32076804, 37
859, 1017.589777, -11.32076804, 37
860, 1046.987221, -11.32076804, 37
861, 1076.384665, -11.32076804, 37
862, 1105.782109, -11.32076804, 37
863, 1135.179553, -11.32076804, 37
864, 1164.576997, -11.32076804, 37
865, 1193.974441, -11.32076804, 37
866, 1223.371885, -11.32076804, 37
867, 1252.76933, -11.32076804, 37
868, 1282.166774, -11.32076804, 37
869, 1311.564218, -11.32076804, 37
870, 1340.961662, -11.32076804, 37
871, 1370.359106, -11.32076804, 37
872, 1399.75655, -11.32076804, 37
873, 1429.153994, -11.32076804, 37
874, 1458.551438, -11.32076804, 37
875, 1487.948883, -11.32076804, 37
876, 1517.346327, -11.32076804, 37
877, 1546.743771, -11.32076804, 37
878, 1576.141215, -11.32076804, 37
879, 1605.538659, -11.32076804, 37
880, 1634.936103, -11.32076804, 37
881, 1664.333547, -11.32076804, 37
882, 1693.730992, -11.32076804, 37
883, 1723.128436, -11.32076804, 37
884, 1752.52588, -11.32076804, 37
885, 1781.923324, -11.32076804, 37
886, 1811.320768, 19.24527037, 37
887, 1811.320768, 49.81130877, 37
888, 1811.320768, 80.37734717, 37
889, 1811.320768, 110.9433856, 37
890, 1811.320768, 141.509424, 37
891, 1811.320768, 172.0754624, 37
892, 1811.320768, 202.6415008, 37
893, 1811.320768, 233.2075392, 37
894, 1811.320768, 263.7735776, 37
895, 1811.320768, 294.339616, 37
896, 1811.320768, 324.9056544, 37
897, 1811.320768, 355.4716928, 37
898, 1811.320768, 386.0377312, 37
899, 1811.320768, 416.6037696, 37
900, 1811.320768, 447.169808, 37
901, 1811.320768, 477.7358464, 37
902, 1811.320768, 508.3018848, 37
903, 1811.320768, 538.8679232, 37
904, 1811.320768, 569.4339616, 37
905, 1811.320768, 600, 37
906, 1811.320768, 630.5660384, 37
907, 1811.320768, 661.1320768, 37
908, 1811.320768, 691.6981152, 37
909, 1811.320768, 722.2641536, 37
910, 1811.320768, 752.830192, 37
911, 1811.320768, 783.3962304, 37
912, 1811.320768, 813.9622688, 37
913, 1811.320768, 844.5283072, 37
914, 1811.320768, 875.0943456, 37
915, 1811.320768, 905.660384, 37
916, 1811.320768, 936.2264224, 37
917, 1811.320768, 966.7924608, 37
918, 1811.320768, 997.3584992, 37
919, 1811.320768, 1027.924538, 37
920, 1811.320768, 1058.490576, 37
921, 1811.320768, 1089.056614, 37
922, 1811.320768, 1119.622653, 37
923, 1811.320768, 1150.188691, 37
924, 1811.320768, 1180.75473, 37
925, 1780.943409, 1211.320768, 37
926, 1750.56605, 1211.320768, 37
927, 1720.188691, 1211.320768, 37
928, 1689.811332, 1211.320768, 37
929, 1659.433973, 1211.320768, 37
930, 1629.056614, 1211.320768, 37
931, 1598.679255, 1211.320768, 37
932, 1568.301897, 1211.320768, 37
933, 1537.924538, 1211.320768, 37
934, 1507.547179, 1211.320768, 37
935, 1477.16982, 1211.320768, 37
936, 1446.792461, 1211.320768, 37
937, 1416.415102, 1211.320768, 37
938, 1386.037743, 1211.320768, 37
939, 1355.660384, 1211.320768, 37
940, 1325.283025, 1211.320768, 37
941, 1294.905666, 1211.320768, 37
942, 1264.528307, 1211.320768, 37
943, 1234.150948, 1211.320768, 37
944, 1203.773589, 1211.320768, 37
945, 1173.39623, 1211.320768, 37
946, 1143.018871, 1211.320768, 37
947, 1112.641513, 1211.320768, 37
948, 1082.264154, 1211.320768, 37
949, 1051.886795, 1211.320768, 37
950, 1021.509436, 1211.320768, 37
951, 991.1320768, 1211.320768, 37
952, 960.7547179, 1211.320768, 37
953, 930.3773589, 1211.320768, 37
954, 900, 1211.320768, 37
955, 869.6226411, 1211.320768, 37
956, 839.2452821, 1211.320768, 37
957, 808.8679232, 1211.320768, 37
958, 778.4905643, 1211.320768, 37
959, 748.1132053, 1211.320768, 37
960, 717.7358464, 1211.320768, 37
961, 687.3584875, 1211.320768, 37
962, 656.9811285, 1211.320768, 37
963, 626.6037696, 1211.320768, 37
964, 596.2264107, 1211.320768, 37
965, 565.8490517, 1211.320768, 37
966, 535.4716928, 1211.320768, 37
967, 505.0943339, 1211.320768, 37
968, 474.7169749, 1211.320768, 37
969, 444.339616, 1211.320768, 37
970, 413.962257, 1211.320768, 37
971, 383.5848981, 1211.320768, 37
972, 353.2075392, 1211.320768, 37
973, 322.8301802, 1211.320768, 37
974, 292.4528213, 1211.320768, 37
975, 262.0754624, 1211.320768, 37
976, 231.6981034, 1211.320768, 37
977, 201.3207445, 1211.320768, 37
978, 170.9433856, 1211.320768, 37
979, 140.5660266, 1211.320768, 37
980, 110.1886677, 1211.320768, 37
981, 79.81130877, 1211.320768, 37
982, 49.43394983, 1211.320768, 37
983, 19.0565909, 1211.320768, 37
984, -11.32076804, 1180.75473, 37
985, -11.32076804, 1150.188691, 37
986, -11.32076804, 1119.622653, 37
987, -11.32076804, 1089.056614, 37
988, -11.32076804, 1058.490576, 37
989, -11.32076804, 1027.924538, 37
990, -11.32076804, 997.3584992, 37
991, -11.32076804, 966.7924608, 37
992, -11.32076804, 936.2264224, 37
993, -11.32076804, 905.660384, 37
994, -11.32076804, 875.0943456, 37
995, -11.32076804, 844.5283072, 37
996, -11.32076804, 813.9622688, 37
997, -11.32076804, 783.3962304, 37
998, -11.32076804, 752.830192, 37
999, -11.32076804, 722.2641536, 37
1000, -11.32076804, 691.6981152, 37
1001, -11.32076804, 661.1320768, 37
1002, -11.32076804, 630.5660384, 37
1003, -11.32076804, 600, 37
1004, -11.32076804, 569.4339616, 37
1005, -11.32076804, 538.8679232, 37
1006, -11.32076804, 508.3018848, 37
1007, -11.32076804, 477.7358464, 37
1008, -11.32076804, 447.169808, 37
1009, -11.32076804, 416.6037696, 37
1010, -11.32076804, 386.0377312, 37
1011, -11.32076804, 355.4716928, 37
1012, -11.32076804, 324.9056544, 37
1013, -11.32076804, 294.339616, 37
1014, -11.32076804, 263.7735776, 37
1015, -11.32076804, 233.2075392, 37
1016, -11.32076804, 202.6415008, 37
1017, -11.32076804, 172.0754624, 37
1018, -11.32076804, 141.509424, 37
1019, -11.32076804, 110.9433856, 37
1020, -11.32076804, 80.37734717, 37
1021, -11.32076804, 49.81130877, 37
1022, -11.32076804, 19.24527037, 37
1023, 27.75409545, -1.320768035, 37
1024, 56.82895893, -1.320768035, 37
1025, 85.90382242, -1.320768035, 37
1026, 114.9786859, -1.320768035, 37
1027, 144.0535494, -1.320768035, 37
1028, 173.1284129, -1.320768035, 37
1029, 202.2032764, -1.320768035, 37
1030, 231.2781398, -1.320768035, 37
1031, 260.3530033, -1.320768035, 37
1032, 289.4278668, -1.320768035, 37
1033, 318.5027303, -1.320768035, 37
1034, 347.5775938, -1.320768035, 37
1035, 376.6524573, -1.320768035, 37
1036, 405.7273208, -1.320768035, 37
1037, 434.8021842, -1.320768035, 37
1038, 463.8770477, -1.320768035, 37
1039, 492.9519112, -1.320768035, 37
1040, 522.0267747, -1.320768035, 37
1041, 551.1016382, -1.320768035, 37
1042, 580.1765017, -1.320768035, 37
1043, 609.2513651, -1.320768035, 37
1044, 638.3262286, -1.320768035, 37
1045, 667.4010921, -1.320768035, 37
1046, 696.4759556, -1.320768035, 37
1047, 725.5508191, -1.320768035, 37
1048, 754.6256826, -1.320768035, 37
1049, 783.7005461, -1.320768035, 37
1050, 812.7754095, -1.320768035, 37
1051, 841.850273, -1.320768035, 37
1052, 870.9251365, -1.320768035, 37
1053, 900, -1.320768035, 37
1054, 929.0748635, -1.320768035, 37
1055, 958.149727, -1.320768035, 37
1056, 987.2245905, -1.320768035, 37
1057, 1016.299454, -1.320768035, 37
1058, 1045.374317, -1.320768035, 37
1059, 1074.449181, -1.320768035, 37
1060, 1103.524044, -1.320768035, 37
1061, 1132.598908, -1.320768035, 37
1062, 1161.673771, -1.320768035, 37
1063, 1190.748635, -1.320768035, 37
1064, 1219.823498, -1.320768035, 37
1065, 1248.898362, -1.320768035, 37
1066, 1277.973225, -1.320768035, 37
1067, 1307.048089, -1.320768035, 37
1068, 1336.122952, -1.320768035, 37
1069, 1365.197816, -1.320768035, 37
1070, 1394.272679, -1.320768035, 37
1071, 1423.347543, -1.320768035, 37
1072, 1452.422406, -1.320768035, 37
1073, 1481.49727, -1.320768035, 37
1074, 1510.572133, -1.320768035, 37
1075, 1539.646997, -1.320768035, 37
1076, 1568.72186, -1.320768035, 37
1077, 1597.796724, -1.320768035, 37
1078, 1626.871587, -1.320768035, 37
1079, 1655.946451, -1.320768035, 37
1080, 1685.021314, -1.320768035, 37
1081, 1714.096178, -1.320768035, 37
1082, 1743.171041, -1.320768035, 37
1083, 1772.245905, -1.320768035, 37
1084, 1801.320768, 28.74527037, 37
1085, 1801.320768, 58.81130877, 37
1086, 1801.320768, 88.87734717, 37
1087, 1801.320768, 118.9433856, 37
1088, 1801.320768, 149.009424, 37
1089, 1801.320768, 179.0754624, 37
1090, 1801.320768, 209.1415008, 37
1091, 1801.320768, 239.2075392, 37
1092, 1801.320768, 269.2735776, 37
1093, 1801.320768, 299.339616, 37
1094, 1801.320768, 329.4056544, 37
1095, 1801.320768, 359.4716928, 37
1096, 1801.320768, 389.5377312, 37
1097, 1801.320768, 419.6037696, 37
1098, 1801.320768, 449.669808, 37
1099, 1801.320768, 479.7358464, 37
1100, 1801.320768, 509.8018848, 37
1101, 1801.320768, 539.8679232, 37
1102, 1801.320768, 569.9339616, 37
1103, 1801.320768, 600, 37
1104, 1801.320768, 630.0660384, 37
1105, 1801.320768, 660.1320768, 37
1106, 1801.320768, 690.1981152, 37
1107, 1801.320768, 720.2641536, 37
1108, 1801.320768, 750.330192, 37
1109, 1801.320768, 780.3962304, 37
1110, 1801.320768, 810.4622688, 37
1111, 1801.320768, 840.5283072, 37
1112, 1801.320768, 870.5943456, 37
1113, 1801.320768, 900.660384, 37
1114, 1801.320768, 930.7264224, 37
1115, 1801.320768, 960.7924608, 37
1116, 1801.320768, 990.8584992, 37
1117, 1801.320768, 1020.924538, 37
1118, 1801.320768, 1050.990576, 37
1119, 1801.320768, 1081.056614, 37
1120, 1801.320768, 1111.122653, 37
1121, 1801.320768, 1141.188691, 37
1122, 1801.320768, 1171.25473, 37
1123, 1771.276742, 1201.320768, 37
1124, 1741.232717, 1201.320768, 37
1125, 1711.188691, 1201.320768, 37
1126, 1681.144666, 1201.320768, 37
1127, 1651.10064, 1201.320768, 37
1128, 1621.056614, 1201.320768, 37
1129, 1591.012589, 1201.320768, 37
1130, 1560.968563, 1201.320768, 37
1131, 1530.924538, 1201.320768, 37
1132, 1500.880512, 1201.320768, 37
1133, 1470.836486, 1201.320768, 37
1134, 1440.792461, 1201.320768, 37
1135, 1410.748435, 1201.320768, 37
1136, 1380.70441, 1201.320768, 37
1137, 1350.660384, 1201.320768, 37
1138, 1320.616358, 1201.320768, 37
1139, 1290.572333, 1201.320768, 37
1140, 1260.528307, 1201.320768, 37
1141, 1230.484282, 1201.320768, 37
1142, 1200.440256, 1201.320768, 37
1143, 1170.39623, 1201.320768, 37
1144, 1140.352205, 1201.320768, 37
1145, 1110.308179, 1201.320768, 37
1146, 1080.264154, 1201.320768, 37
1147, 1050.220128, 1201.320768, 37
1148, 1020.176102, 1201.320768, 37
1149, 990.1320768, 1201.320768, 37
1150, 960.0880512, 1201.320768, 37
1151, 930.0440256, 1201.320768, 37
1152, 900, 1201.320768, 37
1153, 869.9559744, 1201.320768, 37
1154, 839.9119488, 1201.320768, 37
1155, 809.8679232, 1201.320768, 37
1156, 779.8238976, 1201.320768, 37
1157, 749.779872, 1201.320768, 37
1158, 719.7358464, 1201.320768, 37
1159, 689.6918208, 1201.320768, 37
1160, 659.6477952, 1201.320768, 37
1161, 629.6037696, 1201.320768, 37
1162, 599.559744, 1201.320768, 37
1163, 569.5157184, 1201.320768, 37
1164, 539.4716928, 1201.320768, 37
1165, 509.4276672, 1201.320768, 37
1166, 479.3836416, 1201.320768, 37
1167, 449.339616, 1201.320768, 37
1168, 419.2955904, 1201.320768, 37
1169, 389.2515648, 1201.320768, 37
1170, 359.2075392, 1201.320768, 37
1171, 329.1635136, 1201.320768, 37
1172, 299.119488, 1201.320768, 37
1173, 269.0754624, 1201.320768, 37
1174, 239.0314368, 1201.320768, 37
1175, 208.9874112, 1201.320768, 37
1176, 178.9433856, 1201.320768, 37
1177, 148.89936, 1201.320768, 37
1178, 118.8553344, 1201.320768, 37
1179, 88.81130877, 1201.320768, 37
1180, 58.76728317, 1201.320768, 37
1181, 28.72325757, 1201.320768, 37
1182, -1.320768035, 1171.25473, 37
1183, -1.320768035, 1141.188691, 37
1184, -1.320768035, 1111.122653, 37
1185, -1.320768035, 1081.056614, 37
1186, -1.320768035, 1050.990576, 37
1187, -1.320768035, 1020.924538, 37
1188, -1.320768035, 990.8584992, 37
1189, -1.320768035, 960.7924608, 37
1190, -1.320768035, 930.7264224, 37
1191, -1.320768035, 900.660384, 37
1192, -1.320768035, 870.5943456, 37
1193, -1.320768035, 840.5283072, 37
1194, -1.320768035, 810.4622688, 37
1195, -1.320768035, 780.3962304, 37
1196, -1.320768035, 750.330192, 37
1197, -1.320768035, 720.2641536, 37
1198, -1.320768035, 690.1981152, 37
1199, -1.320768035, 660.1320768, 37
1200, -1.320768035, 630.0660384, 37
1201, -1.320768035, 600, 37
1202, -1.320768035, 569.9339616, 37
1203, -1.320768035, 539.8679232, 37
1204, -1.320768035, 509.8018848, 37
1205, -1.320768035, 479.7358464, 37
1206, -1.320768035, 449.669808, 37
1207, -1.320768035, 419.6037696, 37
1208, -1.320768035, 389.5377312, 37
1209, -1.320768035, 359.4716928, 37
1210, -1.320768035, 329.4056544, 37
1211, -1.320768035, 299.339616, 37
1212, -1.320768035, 269.2735776, 37
1213, -1.320768035, 239.2075392, 37
1214, -1.320768035, 209.1415008, 37
1215, -1.320768035, 179.0754624, 37
1216, -1.320768035, 149.009424, 37
1217, -1.320768035, 118.9433856, 37
1218, -1.320768035, 88.87734717, 37
1219, -1.320768035, 58.81130877, 37
1220, -1.320768035, 28.74527037, 37
1221, 30, 30, -11.25042711
1222, 30, 60, -14.99999962
1223, 30, 90, -14.9999996
1224, 30, 120, -14.99999997
1225, 30, 150, -15
1226, 30, 180, -15
1227, 30, 210, -15
1228, 30, 240, -15
1229, 30, 270, -15
1230, 30, 300, -15
1231, 30, 330, -15
1232, 30, 360, -15
1233, 30, 390, -15
1234, 30, 420, -15
1235, 30, 450, -14.99999713
1236, 30, 480, -14.99999713
1237, 30, 510, -15
1238, 30, 540, -11.25027788
1239, 30, 570, -5.625277737
1240, 30, 600, -3.745566285
1241, 30, 630, -1.870566587
1242, 30, 660, -1.605095752e-07
1243, 30, 690, -1.874995838
1244, 30, 720, -7.499997409
1245, 30, 750, -13.12500157
1246, 30, 780, -15
1247, 30, 810, -15
1248, 30, 840, -15
1249, 30, 870, -15
1250, 30, 900, -15
1251, 30, 930, -15
1252, 30, 960, -14.99999998
1253, 30, 990, -14.99999998
1254, 30, 1020, -12.52384867
1255, 30, 1050, -10.64935422
1256, 30, 1080, -13.12550554
1257, 30, 1110, -15
1258, 30, 1140, -15
1259, 30, 1170, -11.2500182
1260, 60, 30, -11.25077287
1261, 60, 60, -15
1262, 60, 90, -15
1263, 60, 120, -15
1264, 60, 150, -15
1265, 60, 180, -15
1266, 60, 210, -15
1267, 60, 240, -15
1268, 60, 270, -15
1269, 60, 300, -15
1270, 60, 330, -15
1271, 60, 360, -15
1272, 60, 390, -15
1273, 60, 420, -15
1274, 60, 450, -15
1275, 60, 480, -15
1276, 60, 510, -15
1277, 60, 540, -13.12527797
1278, 60, 570, -11.25027783
1279, 60, 600, -11.24556628
1280, 60, 630, -9.370566586
1281, 60, 660, -5.786904823
1282, 60, 690, -5.786989737
1283, 60, 720, -11.2500825
1284, 60, 750, -14.99999743
1285, 60, 780, -15
1286, 60, 810, -15
1287, 60, 840, -15
1288, 60, 870, -15
1289, 60, 900, -15
1290, 60, 930, -15
1291, 60, 960, -13.22191541
1292, 60, 990, -11.34708751
1293, 60, 1020, -12.05612246
1294, 60, 1050, -13.93095036
1295, 60, 1080, -15
1296, 60, 1110, -15
1297, 60, 1140, -15
1298, 60, 1170, -11.25002026
1299, 90, 30, -11.2511049
1300, 90, 60, -15
1301, 90, 90, -15
1302, 90, 120, -15
1303, 90, 150, -15
1304, 90, 180, -15
1305, 90, 210, -15
1306, 90, 240, -15
1307, 90, 270, -15
1308, 90, 300, -15
1309, 90, 330, -15
1310, 90, 360, -15
1311, 90, 390, -15
1312, 90, 420, -15
1313, 90, 450, -15
1314, 90, 480, -15
1315, 90, 510, -15
1316, 90, 540, -15
1317, 90, 570, -15
1318, 90, 600, -15
1319, 90, 630, -15
1320, 90, 660, -13.28690466
1321, 90, 690, -11.4119939
1322, 90, 720, -12.37898803
1323, 90, 750, -12.40020095
1324, 90, 780, -11.27130295
1325, 90, 810, -11.44138047
1326, 90, 840, -13.31637968
1327, 90, 870, -15
1328, 90, 900, -13.12500981
1329, 90, 930, -11.25042626
1330, 90, 960, -9.472332193
1331, 90, 990, -7.598353111
1332, 90, 1020, -10.78395856
1333, 90, 1050, -14.53252119
1334, 90, 1080, -15
1335, 90, 1110, -15
1336, 90, 1140, -14.99999999
1337, 90, 1170, -11.2500516
1338, 120, 30, -11.25033023
1339, 120, 60, -14.99999806
1340, 120, 90, -15
1341, 120, 120, -15
1342, 120, 150, -15
1343, 120, 180, -15
1344, 120, 210, -14.99999999
1345, 120, 240, -14.99999999
1346, 120, 270, -15
1347, 120, 300, -15
1348, 120, 330, -15
1349, 120, 360, -15
1350, 120, 390, -15
1351, 120, 420, -15
1352, 120, 450, -15
1353, 120, 480, -15
1354, 120, 510, -15
1355, 120, 540, -15
1356, 120, 570, -15
1357, 120, 600, -15
1358, 120, 630, -15
1359, 120, 660, -15
1360, 120, 690, -15
1361, 120, 720, -14.25390018
1362, 120, 750, -10.53213291
1363, 120, 780, -7.528233737
1364, 120, 810, -7.691380685
1365, 120, 840, -9.566379608
1366, 120, 870, -11.24999993
1367, 120, 900, -9.375009811
1368, 120, 930, -7.523294239
1369, 120, 960, -8.997371243
1370, 120, 990, -10.85035207
1371, 120, 1020, -13.12626526
1372, 120, 1050, -15
1373, 120, 1080, -15
1374, 120, 1110, -15
1375, 120, 1140, -14.99999999
1376, 120, 1170, -11.2575549
1377, 150, 30, -9.394205041
1378, 150, 60, -13.144205
1379, 150, 90, -15
1380, 150, 120, -15
1381, 150, 150, -13.12500337
1382, 150, 180, -11.24969882
1383, 150, 210, -11.24960105
1384, 150, 240, -11.24990666
1385, 150, 270, -11.25000111
1386, 150, 300, -11.25000035
1387, 150, 330, -13.12499925
1388, 150, 360, -14.99999896
1389, 150, 390, -15
1390, 150, 420, -15
1391, 150, 450, -15
1392, 150, 480, -15
1393, 150, 510, -15
1394, 150, 540, -15
1395, 150, 570, -15
1396, 150, 600, -15
1397, 150, 630, -15
1398, 150, 660, -15
1399, 150, 690, -15
1400, 150, 720, -15
1401, 150, 750, -13.13193058
1402, 150, 780, -9.430594557
1403, 150, 810, -7.548663793
1404, 150, 840, -5.624999739
1405, 150, 870, -3.749999926
1406, 150, 900, -5.624999993
1407, 150, 930, -9.397867969
1408, 150, 960, -12.74695447
1409, 150, 990, -14.5990865
1410, 150, 1020, -15
1411, 150, 1050, -15
1412, 150, 1080, -15
1413, 150, 1110, -15
1414, 150, 1140, -15
1415, 150, 1170, -11.25752253
1416, 180, 30, -7.706282667
1417, 180, 60, -9.817652816
1418, 180, 90, -13.36200241
1419, 180, 120, -15
1420, 180, 150, -11.25000894
1421, 180, 180, -5.624704391
1422, 180, 210, -3.749601056
1423, 180, 240, -3.749906661
1424, 180, 270, -3.750001115
1425, 180, 300, -3.750000352
1426, 180, 330, -7.499999266
1427, 180, 360, -13.12499897
1428, 180, 390, -15
1429, 180, 420, -15
1430, 180, 450, -15
1431, 180, 480, -15
1432, 180, 510, -15
1433, 180, 540, -15
1434, 180, 570, -15
1435, 180, 600, -15
1436, 180, 630, -15
1437, 180, 660, -15
1438, 180, 690, -15
1439, 180, 720, -15
1440, 180, 750, -15
1441, 180, 780, -11.42830972
1442, 180, 810, -7.678309565
1443, 180, 840, -3.749999845
1444, 180, 870, -6.523254852e-10
1445, 180, 900, -3.749999997
1446, 180, 930, -11.25
1447, 180, 960, -15
1448, 180, 990, -15
1449, 180, 1020, -15
1450, 180, 1050, -15
1451, 180, 1080, -15
1452, 180, 1110, -13.12500014
1453, 180, 1140, -11.25000014
1454, 180, 1170, -9.375007725
1455, 210, 30, -9.562124601
1456, 210, 60, -7.923488403
1457, 210, 90, -9.611996064
1458, 210, 120, -11.25000001
1459, 210, 150, -9.375005567
1460, 210, 180, -3.750005561
1461, 210, 210, -4.059252933e-14
1462, 210, 240, -6.245004513e-16
1463, 210, 270, -8.326672684e-16
1464, 210, 300, -2.758418493e-12
1465, 210, 330, -3.747921783
1466, 210, 360, -11.24792178
1467, 210, 390, -15
1468, 210, 420, -15
1469, 210, 450, -15
1470, 210, 480, -14.99999999
1471, 210, 510, -13.12511281
1472, 210, 540, -11.25011282
1473, 210, 570, -11.25000476
1474, 210, 600, -13.12500476
1475, 210, 630, -15
1476, 210, 660, -15
1477, 210, 690, -15
1478, 210, 720, -15
1479, 210, 750, -15
1480, 210, 780, -13.25350706
1481, 210, 810, -11.37850709
1482, 210, 840, -7.500039779
1483, 210, 870, -3.750039743
1484, 210, 900, -5.625017557
1485, 210, 930, -10.77156607
1486, 210, 960, -14.52154851
1487, 210, 990, -15
1488, 210, 1020, -14.90802266
1489, 210, 1050, -13.03302277
1490, 210, 1080, -11.24999512
1491, 210, 1110, -7.499995147
1492, 210, 1140, -3.75000014
1493, 210, 1170, -3.749993418
1494, 240, 30, -11.25004174
1495, 240, 60, -5.625035392
1496, 240, 90, -3.749993651
1497, 240, 120, -3.750000006
1498, 240, 150, -3.749999995
1499, 240, 180, -1.874999989
1500, 240, 210, -4.163336342e-16
1501, 240, 240, 0
1502, 240, 270, 0
1503, 240, 300, 0
1504, 240, 330, -1.872921769
1505, 240, 360, -7.497924271
1506, 240, 390, -13.12498729
1507, 240, 420, -14.99998479
1508, 240, 450, -15
1509, 240, 480, -13.12500444
1510, 240, 510, -9.371726824
1511, 240, 540, -5.621722388
1512, 240, 570, -4.672423964
1513, 240, 600, -8.422423959
1514, 240, 630, -13.125
1515, 240, 660, -15
1516, 240, 690, -15
1517, 240, 720, -15
1518, 240, 750, -15
1519, 240, 780, -14.99886111
1520, 240, 810, -14.99886111
1521, 240, 840, -13.12503974
1522, 240, 870, -11.25003974
1523, 240, 900, -11.25001755
1524, 240, 930, -12.64656607
1525, 240, 960, -14.52154851
1526, 240, 990, -15
1527, 240, 1020, -13.03302267
1528, 240, 1050, -7.408022788
1529, 240, 1080, -3.749995124
1530, 240, 1110, -1.87499501
1531, 240, 1140, -3.830269435e-14
1532, 240, 1170, -1.249000903e-15
1533, 270, 30, -9.495786616
1534, 270, 60, -3.748566674
1535, 270, 90, -1.540434447e-14
1536, 270, 120, -8.409939411e-14
1537, 270, 150, -8.056055822e-14
1538, 270, 180, -1.45716772e-15
1539, 270, 210, 0
1540, 270, 240, 0
1541, 270, 270, 0
1542, 270, 300, 0
1543, 270, 330, -2.361096735e-10
1544, 270, 360, -1.875002503
1545, 270, 390, -7.499833118
1546, 270, 420, -11.24983061
1547, 270, 450, -11.25000001
1548, 270, 480, -9.372355886
1549, 270, 510, -5.618965445
1550, 270, 540, -1.871609572
1551, 270, 570, -0.9224191991
1552, 270, 600, -4.672128846
1553, 270, 630, -11.24970965
1554, 270, 660, -15
1555, 270, 690, -15
1556, 270, 720, -15
1557, 270, 750, -15
1558, 270, 780, -15
1559, 270, 810, -15
1560, 270, 840, -15
1561, 270, 870, -15
1562, 270, 900, -15
1563, 270, 930, -15
1564, 270, 960, -15
1565, 270, 990, -14.52347297
1566, 270, 1020, -10.77321472
1567, 270, 1050, -3.749741748
1568, 270, 1080, -2.202404925e-13
1569, 270, 1110, 0
1570, 270, 1140, 0
1571, 270, 1170, 0
1572, 300, 30, -6.043497136
1573, 300, 60, -2.171278485
1574, 300, 90, -6.869504964e-15
1575, 300, 120, 0
1576, 300, 150, 0
1577, 300, 180, 0
1578, 300, 210, 0
1579, 300, 240, 0
1580, 300, 270, 0
1581, 300, 300, 0
1582, 300, 330, 0
1583, 300, 360, -5.193762087e-13
1584, 300, 390, -1.874845825
1585, 300, 420, -3.74984582
1586, 300, 450, -3.750000009
1587, 300, 480, -3.747351443
1588, 300, 510, -1.872351429
1589, 300, 540, 0
1590, 300, 570, 0
1591, 300, 600, -1.874709648
1592, 300, 630, -7.499709673
1593, 300, 660, -11.25216244
1594, 300, 690, -11.25216243
1595, 300, 720, -11.25037529
1596, 300, 750, -13.12537527
1597, 300, 780, -15
1598, 300, 810, -15
1599, 300, 840, -13.80212693
1600, 300, 870, -13.80212693
1601, 300, 900, -15
1602, 300, 930, -15
1603, 300, 960, -15
1604, 300, 990, -12.64847272
1605, 300, 1020, -7.023214452
1606, 300, 1050, -1.874741734
1607, 300, 1080, 0
1608, 300, 1110, 0
1609, 300, 1140, 0
1610, 300, 1170, 0
1611, 330, 30, -2.172703388
1612, 330, 60, -0.2977046799
1613, 330, 90, 0
1614, 330, 120, 0
1615, 330, 150, 0
1616, 330, 180, 0
1617, 330, 210, 0
1618, 330, 240, 0
1619, 330, 270, 0
1620, 330, 300, 0
1621, 330, 330, 0
1622, 330, 360, 0
1623, 330, 390, 0
1624, 330, 420, 0
1625, 330, 450, -4.163336342e-16
1626, 330, 480, -4.163336342e-16
1627, 330, 510, 0
1628, 330, 540, 0
1629, 330, 570, 0
1630, 330, 600, -1.717376241e-13
1631, 330, 630, -1.875000025
1632, 330, 660, -3.752162439
1633, 330, 690, -3.752162434
1634, 330, 720, -3.75037529
1635, 330, 750, -5.625375269
1636, 330, 780, -9.374751243
1637, 330, 810, -11.25074749
1638, 330, 840, -11.92812318
1639, 330, 870, -13.80212693
1640, 330, 900, -15
1641, 330, 930, -15
1642, 330, 960, -13.12500331
1643, 330, 990, -7.500003053
1644, 330, 1020, -1.874999746
1645, 330, 1050, -6.245004513e-16
1646, 330, 1080, 0
1647, 330, 1110, 0
1648, 330, 1140, 0
1649, 330, 1170, 0
1650, 360, 30, -1.727784582e-14
1651, 360, 60, -1.249000903e-15
1652, 360, 90, 0
1653, 360, 120, 0
1654, 360, 150, 0
1655, 360, 180, 0
1656, 360, 210, 0
1657, 360, 240, 0
1658, 360, 270, 0
1659, 360, 300, 0
1660, 360, 330, 0
1661, 360, 360, 0
1662, 360, 390, 0
1663, 360, 420, 0
1664, 360, 450, 0
1665, 360, 480, 0
1666, 360, 510, 0
1667, 360, 540, 0
1668, 360, 570, 0
1669, 360, 600, 0
1670, 360, 630, -2.081668171e-16
1671, 360, 660, -1.165734176e-14
1672, 360, 690, -1.165734176e-14
1673, 360, 720, -1.061650767e-14
1674, 360, 750, -1.47592355e-11
1675, 360, 780, -1.874751244
1676, 360, 810, -5.625752151
1677, 360, 840, -11.25100091
1678, 360, 870, -15
1679, 360, 900, -15
1680, 360, 930, -14.99919721
1681, 360, 960, -11.24920051
1682, 360, 990, -3.750003302
1683, 360, 1020, -4.350686477e-14
1684, 360, 1050, 0
1685, 360, 1080, 0
1686, 360, 1110, 0
1687, 360, 1140, 0
1688, 360, 1170, 0
1689, 390, 30, -3.749995387
1690, 390, 60, -1.874996422
1691, 390, 90, -2.081668171e-16
1692, 390, 120, 0
1693, 390, 150, 0
1694, 390, 180, 0
1695, 390, 210, 0
1696, 390, 240, 0
1697, 390, 270, 0
1698, 390, 300, 0
1699, 390, 330, 0
1700, 390, 360, 0
1701, 390, 390, 0
1702, 390, 420, 0
1703, 390, 450, 0
1704, 390, 480, 0
1705, 390, 510, 0
1706, 390, 540, 0
1707, 390, 570, 0
1708, 390, 600, 0
1709, 390, 630, 0
1710, 390, 660, 0
1711, 390, 690, 0
1712, 390, 720, 0
1713, 390, 750, 0
1714, 390, 780, -1.686151218e-14
1715, 390, 810, -3.750004337
1716, 390, 840, -11.25000434
1717, 390, 870, -15
1718, 390, 900, -15
1719, 390, 930, -13.12419721
1720, 390, 960, -7.4991972
1721, 390, 990, -1.874999994
1722, 390, 1020, 0
1723, 390, 1050, 0
1724, 390, 1080, 0
1725, 390, 1110, 0
1726, 390, 1140, 0
1727, 390, 1170, 0
1728, 420, 30, -7.499928465
1729, 420, 60, -5.621088574
1730, 420, 90, -1.87109215
1731, 420, 120, -8.326672684e-16
1732, 420, 150, 0
1733, 420, 180, 0
1734, 420, 210, 0
1735, 420, 240, 0
1736, 420, 270, 0
1737, 420, 300, 0
1738, 420, 330, 0
1739, 420, 360, 0
1740, 420, 390, 0
1741, 420, 420, 0
1742, 420, 450, 0
1743, 420, 480, 0
1744, 420, 510, 0
1745, 420, 540, 0
1746, 420, 570, 0
1747, 420, 600, 0
1748, 420, 630, 0
1749, 420, 660, 0
1750, 420, 690, 0
1751, 420, 720, 0
1752, 420, 750, 0
1753, 420, 780, 0
1754, 420, 810, -1.874999681
1755, 420, 840, -7.500000881
1756, 420, 870, -13.1250012
1757, 420, 900, -15
1758, 420, 930, -11.24999725
1759, 420, 960, -3.74999725
1760, 420, 990, -5.766220834e-14
1761, 420, 1020, 0
1762, 420, 1050, 0
1763, 420, 1080, 0
1764, 420, 1110, 0
1765, 420, 1140, 0
1766, 420, 1170, 0
1767, 450, 30, -5.624933085
1768, 450, 60, -7.498685078
1769, 450, 90, -5.623651345
1770, 450, 120, -1.874966276
1771, 450, 150, -4.163336342e-16
1772, 450, 180, 0
1773, 450, 210, 0
1774, 450, 240, 0
1775, 450, 270, 0
1776, 450, 300, 0
1777, 450, 330, 0
1778, 450, 360, 0
1779, 450, 390, 0
1780, 450, 420, 0
1781, 450, 450, 0
1782, 450, 480, 0
1783, 450, 510, 0
1784, 450, 540, 0
1785, 450, 570, 0
1786, 450, 600, 0
1787, 450, 630, 0
1788, 450, 660, 0
1789, 450, 690, 0
1790, 450, 720, 0
1791, 450, 750, 0
1792, 450, 780, 0
1793, 450, 810, -7.514822097e-14
1794, 450, 840, -3.750001187
1795, 450, 870, -11.25000119
1796, 450, 900, -15
1797, 450, 930, -11.24999725
1798, 450, 960, -3.749997251
1799, 450, 990, -1.873501354e-15
1800, 450, 1020, 0
1801, 450, 1050, 0
1802, 450, 1080, 0
1803, 450, 1110, 0
1804, 450, 1140, 0
1805, 450, 1170, 0
1806, 480, 30, -3.749896717
1807, 480, 60, -7.502490514
1808, 480, 90, -7.500962399
1809, 480, 120, -3.748368602
1810, 480, 150, -6.245004513e-16
1811, 480, 180, 0
1812, 480, 210, 0
1813, 480, 240, 0
1814, 480, 270, 0
1815, 480, 300, 0
1816, 480, 330, 0
1817, 480, 360, 0
1818, 480, 390, 0
1819, 480, 420, 0
1820, 480, 450, 0
1821, 480, 480, 0
1822, 480, 510, 0
1823, 480, 540, 0
1824, 480, 570, 0
1825, 480, 600, 0
1826, 480, 630, 0
1827, 480, 660, 0
1828, 480, 690, 0
1829, 480, 720, 0
1830, 480, 750, 0
1831, 480, 780, 0
1832, 480, 810, 0
1833, 480, 840, -3.749999934
1834, 480, 870, -11.24999993
1835, 480, 900, -15
1836, 480, 930, -11.37266338
1837, 480, 960, -5.74766335
1838, 480, 990, -1.874999971
1839, 480, 1020, -2.081668171e-16
1840, 480, 1050, 0
1841, 480, 1080, 0
1842, 480, 1110, 0
1843, 480, 1140, 0
1844, 480, 1170, 0
1845, 510, 30, -1.874896711
1846, 510, 60, -3.749897589
1847, 510, 90, -3.748403204
1848, 510, 120, -1.873402326
1849, 510, 150, -2.081668171e-16
1850, 510, 180, 0
1851, 510, 210, 0
1852, 510, 240, 0
1853, 510, 270, 0
1854, 510, 300, 0
1855, 510, 330, 0
1856, 510, 360, 0
1857, 510, 390, 0
1858, 510, 420, 0
1859, 510, 450, 0
1860, 510, 480, 0
1861, 510, 510, 0
1862, 510, 540, 0
1863, 510, 570, 0
1864, 510, 600, 0
1865, 510, 630, 0
1866, 510, 660, 0
1867, 510, 690, 0
1868, 510, 720, 0
1869, 510, 750, 0
1870, 510, 780, 0
1871, 510, 810, -2.081668171e-16
1872, 510, 840, -3.749999928
1873, 510, 870, -9.374999923
1874, 510, 900, -11.24999999
1875, 510, 930, -11.37266338
1876, 510, 960, -11.37266308
1877, 510, 990, -7.499916021
1878, 510, 1020, -1.874916317
1879, 510, 1050, -2.373101715e-14
1880, 510, 1080, -3.538835891e-15
1881, 510, 1110, 0
1882, 510, 1140, 0
1883, 510, 1170, 0
1884, 540, 30, 0
1885, 540, 60, -6.661338147e-15
1886, 540, 90, -7.285838598e-15
1887, 540, 120, -6.245004513e-16
1888, 540, 150, 0
1889, 540, 180, 0
1890, 540, 210, 0
1891, 540, 240, 0
1892, 540, 270, 0
1893, 540, 300, 0
1894, 540, 330, 0
1895, 540, 360, 0
1896, 540, 390, 0
1897, 540, 420, 0
1898, 540, 450, 0
1899, 540, 480, 0
1900, 540, 510, 0
1901, 540, 540, 0
1902, 540, 570, 0
1903, 540, 600, 0
1904, 540, 630, 0
1905, 540, 660, 0
1906, 540, 690, 0
1907, 540, 720, 0
1908, 540, 750, 0
1909, 540, 780, 0
1910, 540, 810, -2.081668171e-16
1911, 540, 840, -1.87499998
1912, 540, 870, -3.749999976
1913, 540, 900, -3.749999995
1914, 540, 930, -7.500015801
1915, 540, 960, -13.12501553
1916, 540, 990, -11.61157173
1917, 540, 1020, -5.986571992
1918, 540, 1050, -3.749196338
1919, 540, 1080, -1.874196339
1920, 540, 1110, -3.28903571e-14
1921, 540, 1140, -8.514022819e-14
1922, 540, 1170, -1.871805323
1923, 570, 30, 0
1924, 570, 60, 0
1925, 570, 90, 0
1926, 570, 120, 0
1927, 570, 150, 0
1928, 570, 180, 0
1929, 570, 210, 0
1930, 570, 240, -2.081668171e-16
1931, 570, 270, -2.081668171e-16
1932, 570, 300, 0
1933, 570, 330, 0
1934, 570, 360, 0
1935, 570, 390, 0
1936, 570, 420, 0
1937, 570, 450, 0
1938, 570, 480, 0
1939, 570, 510, 0
1940, 570, 540, 0
1941, 570, 570, 0
1942, 570, 600, 0
1943, 570, 630, 0
1944, 570, 660, 0
1945, 570, 690, 0
1946, 570, 720, 0
1947, 570, 750, 0
1948, 570, 780, 0
1949, 570, 810, 0
1950, 570, 840, -3.538835891e-14
1951, 570, 870, -3.538835891e-14
1952, 570, 900, -2.762373663e-13
1953, 570, 930, -3.750015528
1954, 570, 960, -11.25001553
1955, 570, 990, -13.48665568
1956, 570, 1020, -11.61165567
1957, 570, 1050, -9.374591614
1958, 570, 1080, -5.624591616
1959, 570, 1110, -3.750000184
1960, 570, 1140, -3.75000231
1961, 570, 1170, -5.621808951
1962, 600, 30, 0
1963, 600, 60, 0
1964, 600, 90, 0
1965, 600, 120, 0
1966, 600, 150, 0
1967, 600, 180, 0
1968, 600, 210, -2.081668171e-16
1969, 600, 240, -1.870619476
1970, 600, 270, -3.727792799
1971, 600, 300, -1.857173323
1972, 600, 330, -2.081668171e-15
1973, 600, 360, 0
1974, 600, 390, 0
1975, 600, 420, 0
1976, 600, 450, 0
1977, 600, 480, 0
1978, 600, 510, 0
1979, 600, 540, 0
1980, 600, 570, 0
1981, 600, 600, 0
1982, 600, 630, 0
1983, 600, 660, 0
1984, 600, 690, 0
1985, 600, 720, 0
1986, 600, 750, 0
1987, 600, 780, 0
1988, 600, 810, 0
1989, 600, 840, 0
1990, 600, 870, 0
1991, 600, 900, -0.6729733429
1992, 600, 930, -4.422973072
1993, 600, 960, -9.408653296
1994, 600, 990, -13.15859346
1995, 600, 1020, -14.9999399
1996, 600, 1050, -13.12539528
1997, 600, 1080, -11.25039528
1998, 600, 1110, -11.25000018
1999, 600, 1140, -11.25000231
2000, 600, 1170, -11.25000363
2001, 630, 30, 0
2002, 630, 60, 0
2003, 630, 90, 0
2004, 630, 120, 0
2005, 630, 150, 0
2006, 630, 180, 0
2007, 630, 210, -1.45716772e-15
2008, 630, 240, -3.745619475
2009, 630, 270, -7.478034888
2010, 630, 300, -5.607411081
2011, 630, 330, -1.874995668
2012, 630, 360, -4.163336342e-15
2013, 630, 390, 0
2014, 630, 420, 0
2015, 630, 450, 0
2016, 630, 480, 0
2017, 630, 510, 0
2018, 630, 540, 0
2019, 630, 570, 0
2020, 630, 600, 0
2021, 630, 630, -4.163336342e-16
2022, 630, 660, -8.326672684e-16
2023, 630, 690, -4.163336342e-16
2024, 630, 720, 0
2025, 630, 750, 0
2026, 630, 780, 0
2027, 630, 810, 0
2028, 630, 840, 0
2029, 630, 870, 0
2030, 630, 900, -0.6729733429
2031, 630, 930, -4.422965733
2032, 630, 960, -7.533645955
2033, 630, 990, -9.408593449
2034, 630, 1020, -12.18219946
2035, 630, 1050, -14.05725958
2036, 630, 1080, -15
2037, 630, 1110, -15
2038, 630, 1140, -15
2039, 630, 1170, -15
2040, 660, 30, -0.4447595559
2041, 660, 60, 0
2042, 660, 90, 0
2043, 660, 120, 0
2044, 660, 150, 0
2045, 660, 180, 0
2046, 660, 210, -1.249000903e-15
2047, 660, 240, -3.749999998
2048, 660, 270, -9.375242088
2049, 660, 300, -10.11600278
2050, 660, 330, -6.365760461
2051, 660, 360, -3.749849055
2052, 660, 390, -3.74974548
2053, 660, 420, -3.749720509
2054, 660, 450, -3.74981034
2055, 660, 480, -3.749520644
2056, 660, 510, -3.725667944
2057, 660, 540, -2.050205266
2058, 660, 570, -2.067630586
2059, 660, 600, -3.743557853
2060, 660, 630, -3.749999208
2061, 660, 660, -3.749996458
2062, 660, 690, -1.874996454
2063, 660, 720, -2.706168622e-15
2064, 660, 750, 0
2065, 660, 780, 0
2066, 660, 810, 0
2067, 660, 840, 0
2068, 660, 870, 0
2069, 660, 900, -3.538835891e-15
2070, 660, 930, -1.874992387
2071, 660, 960, -3.749992385
2072, 660, 990, -4.670049086
2073, 660, 1020, -7.477413692
2074, 660, 1050, -12.1823646
2075, 660, 1080, -15
2076, 660, 1110, -15
2077, 660, 1140, -15
2078, 660, 1170, -15
2079, 690, 30, -2.319759274
2080, 690, 60, -4.163336342e-16
2081, 690, 90, 0
2082, 690, 120, 0
2083, 690, 150, 0
2084, 690, 180, 0
2085, 690, 210, 0
2086, 690, 240, -3.749483694
2087, 690, 270, -11.24894696
2088, 690, 300, -13.86522829
2089, 690, 330, -10.1629891
2090, 690, 360, -7.547412169
2091, 690, 390, -7.500223006
2092, 690, 420, -7.499863763
2093, 690, 450, -7.499814876
2094, 690, 480, -7.499520649
2095, 690, 510, -7.475667948
2096, 690, 540, -5.800204801
2097, 690, 570, -5.817629948
2098, 690, 600, -7.493565106
2099, 690, 630, -9.375006123
2100, 690, 660, -9.375366321
2101, 690, 690, -5.625302645
2102, 690, 720, -3.719075364
2103, 690, 750, -1.844139546
2104, 690, 780, -4.787836793e-15
2105, 690, 810, 0
2106, 690, 840, 0
2107, 690, 870, 0
2108, 690, 900, 0
2109, 690, 930, 0
2110, 690, 960, -4.99600361e-15
2111, 690, 990, -0.9200491005
2112, 690, 1020, -4.670154139
2113, 690, 1050, -11.25010504
2114, 690, 1080, -14.99617269
2115, 690, 1110, -13.12117269
2116, 690, 1140, -11.25000272
2117, 690, 1170, -11.25000647
2118, 720, 30, -3.74999311
2119, 720, 60, -4.99600361e-15
2120, 720, 90, 0
2121, 720, 120, 0
2122, 720, 150, 0
2123, 720, 180, 0
2124, 720, 210, 0
2125, 720, 240, -1.874483694
2126, 720, 270, -7.49894764
2127, 720, 300, -13.12446395
2128, 720, 330, -13.17222431
2129, 720, 360, -11.29756311
2130, 720, 390, -11.25045765
2131, 720, 420, -9.375251611
2132, 720, 450, -7.500208479
2133, 720, 480, -7.509247688
2134, 720, 510, -7.509172649
2135, 720, 540, -7.499818805
2136, 720, 570, -6.133596228
2137, 720, 600, -6.133785359
2138, 720, 630, -9.375014432
2139, 720, 660, -10.23073267
2140, 720, 690, -8.359597242
2141, 720, 720, -7.473015479
2142, 720, 750, -5.594143636
2143, 720, 780, -1.874999898
2144, 720, 810, 0
2145, 720, 840, 0
2146, 720, 870, 0
2147, 720, 900, 0
2148, 720, 930, 0
2149, 720, 960, 0
2150, 720, 990, -2.081668171e-15
2151, 720, 1020, -3.747261928
2152, 720, 1050, -9.372262065
2153, 720, 1080, -11.24617275
2154, 720, 1110, -7.496172611
2155, 720, 1140, -3.750002717
2156, 720, 1170, -3.750006475
2157, 750, 30, -3.749629609
2158, 750, 60, -9.159339952e-15
2159, 750, 90, 0
2160, 750, 120, 0
2161, 750, 150, 0
2162, 750, 180, 0
2163, 750, 210, 0
2164, 750, 240, -1.977584762e-14
2165, 750, 270, -3.721074894
2166, 750, 300, -9.346075527
2167, 750, 330, -11.36158487
2168, 750, 360, -11.4765665
2169, 750, 390, -11.36497472
2170, 750, 420, -9.375120676
2171, 750, 450, -7.5002959
2172, 750, 480, -7.50933977
2173, 750, 510, -6.960586345
2174, 750, 540, -5.076232846
2175, 750, 570, -2.383596866
2176, 750, 600, -2.383778106
2177, 750, 630, -3.812490019
2178, 750, 660, -6.542845396
2179, 750, 690, -10.23429113
2180, 750, 720, -11.25394011
2181, 750, 750, -10.25307844
2182, 750, 780, -6.48563499
2183, 750, 810, -1.857560745
2184, 750, 840, 0
2185, 750, 870, 0
2186, 750, 900, 0
2187, 750, 930, 0
2188, 750, 960, 0
2189, 750, 990, 0
2190, 750, 1020, -1.872261915
2191, 750, 1050, -3.747262053
2192, 750, 1080, -3.750000059
2193, 750, 1110, -1.874999921
2194, 750, 1140, -7.285838598e-15
2195, 750, 1170, -3.747002708e-15
2196, 780, 30, -3.749636224
2197, 780, 60, -2.406408406e-13
2198, 780, 90, 0
2199, 780, 120, 0
2200, 780, 150, 0
2201, 780, 180, 0
2202, 780, 210, 0
2203, 780, 240, 0
2204, 780, 270, -1.846074214
2205, 780, 300, -5.534338588
2206, 780, 330, -7.549848606
2207, 780, 360, -7.726811191
2208, 780, 390, -7.615245076
2209, 780, 420, -7.4998299
2210, 780, 450, -7.499903383
2211, 780, 480, -7.477270446
2212, 780, 510, -5.053592424
2213, 780, 540, -1.326413577
2214, 780, 570, -2.081668171e-16
2215, 780, 600, 0
2216, 780, 630, -0.06248250188
2217, 780, 660, -3.767021892
2218, 780, 690, -9.329540167
2219, 780, 720, -13.12500078
2220, 780, 750, -14.00307329
2221, 780, 780, -10.23563403
2222, 780, 810, -3.732560744
2223, 780, 840, -9.159339952e-15
2224, 780, 870, 0
2225, 780, 900, 0
2226, 780, 930, 0
2227, 780, 960, 0
2228, 780, 990, 0
2229, 780, 1020, 0
2230, 780, 1050, -3.330669074e-15
2231, 780, 1080, -3.330669074e-15
2232, 780, 1110, 0
2233, 780, 1140, 0
2234, 780, 1170, 0
2235, 810, 30, -7.500000005
2236, 810, 60, -1.874999999
2237, 810, 90, -7.327471962e-14
2238, 810, 120, 0
2239, 810, 150, 0
2240, 810, 180, 0
2241, 810, 210, 0
2242, 810, 240, 0
2243, 810, 270, -3.330669074e-15
2244, 810, 300, -1.813263741
2245, 810, 330, -5.56314297
2246, 810, 360, -7.550743586
2247, 810, 390, -8.7531184
2248, 810, 420, -8.700730642
2249, 810, 450, -5.623476233
2250, 810, 480, -3.727178359
2251, 810, 510, -1.852178725
2252, 810, 540, -4.163336342e-16
2253, 810, 570, -4.163336342e-16
2254, 810, 600, 0
2255, 810, 630, 0
2256, 810, 660, -1.829539307
2257, 810, 690, -5.579446076
2258, 810, 720, -9.375307321
2259, 810, 750, -11.2505828
2260, 810, 780, -9.375182251
2261, 810, 810, -5.618270468
2262, 810, 840, -1.868270464
2263, 810, 870, 0
2264, 810, 900, 0
2265, 810, 930, 0
2266, 810, 960, 0
2267, 810, 990, 0
2268, 810, 1020, 0
2269, 810, 1050, 0
2270, 810, 1080, 0
2271, 810, 1110, 0
2272, 810, 1140, 0
2273, 810, 1170, 0
2274, 840, 30, -13.12268897
2275, 840, 60, -7.497688969
2276, 840, 90, -3.749026344
2277, 840, 120, -1.874026342
2278, 840, 150, 0
2279, 840, 180, 0
2280, 840, 210, 0
2281, 840, 240, 0
2282, 840, 270, 0
2283, 840, 300, -8.326672684e-16
2284, 840, 330, -3.249350636
2285, 840, 360, -8.380933184
2286, 840, 390, -11.9588308
2287, 840, 420, -10.57591308
2288, 840, 450, -3.748664821
2289, 840, 480, -4.662936703e-14
2290, 840, 510, 0
2291, 840, 540, -4.163336342e-16
2292, 840, 570, -4.163336342e-16
2293, 840, 600, 0
2294, 840, 630, 0
2295, 840, 660, 0
2296, 840, 690, -3.749904732
2297, 840, 720, -9.36833335
2298, 840, 750, -11.24361192
2299, 840, 780, -11.00323377
2300, 840, 810, -9.121320927
2301, 840, 840, -3.743270465
2302, 840, 870, -2.331468351e-14
2303, 840, 900, 0
2304, 840, 930, 0
2305, 840, 960, 0
2306, 840, 990, 0
2307, 840, 1020, 0
2308, 840, 1050, 0
2309, 840, 1080, 0
2310, 840, 1110, 0
2311, 840, 1140, 0
2312, 840, 1170, 0
2313, 870, 30, -13.28333014
2314, 870, 60, -11.29020637
2315, 870, 90, -7.54153872
2316, 870, 120, -3.749021321
2317, 870, 150, 0
2318, 870, 180, 0
2319, 870, 210, 0
2320, 870, 240, 0
2321, 870, 270, 0
2322, 870, 300, 0
2323, 870, 330, -1.374471405
2324, 870, 360, -6.460541549
2325, 870, 390, -12.58607014
2326, 870, 420, -11.25481232
2327, 870, 450, -5.629499872
2328, 870, 480, -1.874687553
2329, 870, 510, -2.081668171e-16
2330, 870, 540, 0
2331, 870, 570, 0
2332, 870, 600, 0
2333, 870, 630, 0
2334, 870, 660, -4.163336342e-16
2335, 870, 690, -3.749991359
2336, 870, 720, -9.736676664
2337, 870, 750, -13.48662734
2338, 870, 780, -14.75299248
2339, 870, 810, -11.0030509
2340, 870, 840, -5.204859169
2341, 870, 870, -1.454858714
2342, 870, 900, 0
2343, 870, 930, 0
2344, 870, 960, 0
2345, 870, 990, 0
2346, 870, 1020, 0
2347, 870, 1050, 0
2348, 870, 1080, 0
2349, 870, 1110, 0
2350, 870, 1140, 0
2351, 870, 1170, 0
2352, 900, 30, -11.57128235
2353, 900, 60, -11.33503479
2354, 900, 90, -7.585024752
2355, 900, 120, -3.749989958
2356, 900, 150, 0
2357, 900, 180, 0
2358, 900, 210, 0
2359, 900, 240, 0
2360, 900, 270, 0
2361, 900, 300, 0
2362, 900, 330, -1.022515406e-12
2363, 900, 360, -3.760214515
2364, 900, 390, -11.26021451
2365, 900, 420, -11.25962461
2366, 900, 450, -7.508999717
2367, 900, 480, -3.749375106
2368, 900, 510, -4.163336342e-16
2369, 900, 540, 0
2370, 900, 570, 0
2371, 900, 600, 0
2372, 900, 630, 0
2373, 900, 660, -8.326672684e-16
2374, 900, 690, -3.749985236
2375, 900, 720, -8.237299718
2376, 900, 750, -11.98719855
2377, 900, 780, -14.99988404
2378, 900, 810, -11.25000087
2379, 900, 840, -6.659718335
2380, 900, 870, -2.909717428
2381, 900, 900, 0
2382, 900, 930, 0
2383, 900, 960, 0
2384, 900, 990, 0
2385, 900, 1020, 0
2386, 900, 1050, 0
2387, 900, 1080, 0
2388, 900, 1110, 0
2389, 900, 1140, 0
2390, 900, 1170, 0
2391, 930, 30, -13.28333014
2392, 930, 60, -11.29020637
2393, 930, 90, -7.54153872
2394, 930, 120, -3.749021321
2395, 930, 150, 0
2396, 930, 180, 0
2397, 930, 210, 0
2398, 930, 240, 0
2399, 930, 270, 0
2400, 930, 300, 0
2401, 930, 330, -1.374471405
2402, 930, 360, -6.460541549
2403, 930, 390, -12.58607014
2404, 930, 420, -11.25481232
2405, 930, 450, -5.629499872
2406, 930, 480, -1.874687553
2407, 930, 510, -2.081668171e-16
2408, 930, 540, 0
2409, 930, 570, 0
2410, 930, 600, 0
2411, 930, 630, 0
2412, 930, 660, -4.163336342e-16
2413, 930, 690, -3.749991359
2414, 930, 720, -9.736676664
2415, 930, 750, -13.48662734
2416, 930, 780, -14.75299248
2417, 930, 810, -11.0030509
2418, 930, 840, -5.204859169
2419, 930, 870, -1.454858714
2420, 930, 900, 0
2421, 930, 930, 0
2422, 930, 960, 0
2423, 930, 990, 0
2424, 930, 1020, 0
2425, 930, 1050, 0
2426, 930, 1080, 0
2427, 930, 1110, 0
2428, 930, 1140, 0
2429, 930, 1170, 0
2430, 960, 30, -13.12268897
2431, 960, 60, -7.497688969
2432, 960, 90, -3.749026344
2433, 960, 120, -1.874026342
2434, 960, 150, 0
2435, 960, 180, 0
2436, 960, 210, 0
2437, 960, 240, 0
2438, 960, 270, 0
2439, 960, 300, -8.326672684e-16
2440, 960, 330, -3.249350636
2441, 960, 360, -8.380933184
2442, 960, 390, -11.9588308
2443, 960, 420, -10.57591308
2444, 960, 450, -3.748664821
2445, 960, 480, -4.662936703e-14
2446, 960, 510, 0
2447, 960, 540, -4.163336342e-16
2448, 960, 570, -4.163336342e-16
2449, 960, 600, 0
2450, 960, 630, 0
2451, 960, 660, 0
2452, 960, 690, -3.749904732
2453, 960, 720, -9.36833335
2454, 960, 750, -11.24361192
2455, 960, 780, -11.00323377
2456, 960, 810, -9.121320927
2457, 960, 840, -3.743270465
2458, 960, 870, -2.331468351e-14
2459, 960, 900, 0
2460, 960, 930, 0
2461, 960, 960, 0
2462, 960, 990, 0
2463, 960, 1020, 0
2464, 960, 1050, 0
2465, 960, 1080, 0
2466, 960, 1110, 0
2467, 960, 1140, 0
2468, 960, 1170, 0
2469, 990, 30, -7.500000005
2470, 990, 60, -1.874999999
2471, 990, 90, -7.327471962e-14
2472, 990, 120, 0
2473, 990, 150, 0
2474, 990, 180, 0
2475, 990, 210, 0
2476, 990, 240, 0
2477, 990, 270, -3.330669074e-15
2478, 990, 300, -1.813263741
2479, 990, 330, -5.56314297
2480, 990, 360, -7.550743586
2481, 990, 390, -8.7531184
2482, 990, 420, -8.700730642
2483, 990, 450, -5.623476233
2484, 990, 480, -3.727178359
2485, 990, 510, -1.852178725
2486, 990, 540, -4.163336342e-16
2487, 990, 570, -4.163336342e-16
2488, 990, 600, 0
2489, 990, 630, 0
2490, 990, 660, -1.829539307
2491, 990, 690, -5.579446076
2492, 990, 720, -9.375307321
2493, 990, 750, -11.2505828
2494, 990, 780, -9.375182251
2495, 990, 810, -5.618270468
2496, 990, 840, -1.868270464
2497, 990, 870, 0
2498, 990, 900, 0
2499, 990, 930, 0
2500, 990, 960, 0
2501, 990, 990, 0
2502, 990, 1020, 0
2503, 990, 1050, 0
2504, 990, 1080, 0
2505, 990, 1110, 0
2506, 990, 1140, 0
2507, 990, 1170, 0
2508, 1020, 30, -3.749636224
2509, 1020, 60, -2.406408406e-13
2510, 1020, 90, 0
2511, 1020, 120, 0
2512, 1020, 150, 0
2513, 1020, 180, 0
2514, 1020, 210, 0
2515, 1020, 240, 0
2516, 1020, 270, -1.846074214
2517, 1020, 300, -5.534338588
2518, 1020, 330, -7.549848606
2519, 1020, 360, -7.726811191
2520, 1020, 390, -7.615245076
2521, 1020, 420, -7.4998299
2522, 1020, 450, -7.499903383
2523, 1020, 480, -7.477270446
2524, 1020, 510, -5.053592424
2525, 1020, 540, -1.326413577
2526, 1020, 570, -2.081668171e-16
2527, 1020, 600, 0
2528, 1020, 630, -0.06248250188
2529, 1020, 660, -3.767021892
2530, 1020, 690, -9.329540167
2531, 1020, 720, -13.12500078
2532, 1020, 750, -14.00307329
2533, 1020, 780, -10.23563403
2534, 1020, 810, -3.732560744
2535, 1020, 840, -9.159339952e-15
2536, 1020, 870, 0
2537, 1020, 900, 0
2538, 1020, 930, 0
2539, 1020, 960, 0
2540, 1020, 990, 0
2541, 1020, 1020, 0
2542, 1020, 1050, -3.330669074e-15
2543, 1020, 1080, -3.330669074e-15
2544, 1020, 1110, 0
2545, 1020, 1140, 0
2546, 1020, 1170, 0
2547, 1050, 30, -3.749629609
2548, 1050, 60, -9.159339952e-15
2549, 1050, 90, 0
2550, 1050, 120, 0
2551, 1050, 150, 0
2552, 1050, 180, 0
2553, 1050, 210, 0
2554, 1050, 240, -1.977584762e-14
2555, 1050, 270, -3.721074894
2556, 1050, 300, -9.346075527
2557, 1050, 330, -11.36158487
2558, 1050, 360, -11.4765665
2559, 1050, 390, -11.36497472
2560, 1050, 420, -9.375120676
2561, 1050, 450, -7.5002959
2562, 1050, 480, -7.50933977
2563, 1050, 510, -6.960586345
2564, 1050, 540, -5.076232846
2565, 1050, 570, -2.383596866
2566, 1050, 600, -2.383778106
2567, 1050, 630, -3.812490019
2568, 1050, 660, -6.542845396
2569, 1050, 690, -10.23429113
2570, 1050, 720, -11.25394011
2571, 1050, 750, -10.25307844
2572, 1050, 780, -6.48563499
2573, 1050, 810, -1.857560745
2574, 1050, 840, 0
2575, 1050, 870, 0
2576, 1050, 900, 0
2577, 1050, 930, 0
2578, 1050, 960, 0
2579, 1050, 990, 0
2580, 1050, 1020, -1.872261915
2581, 1050, 1050, -3.747262053
2582, 1050, 1080, -3.750000059
2583, 1050, 1110, -1.874999921
2584, 1050, 1140, -7.285838598e-15
2585, 1050, 1170, -3.747002708e-15
2586, 1080, 30, -3.74999311
2587, 1080, 60, -4.99600361e-15
2588, 1080, 90, 0
2589, 1080, 120, 0
2590, 1080, 150, 0
2591, 1080, 180, 0
2592, 1080, 210, 0
2593, 1080, 240, -1.874483694
2594, 1080, 270, -7.49894764
2595, 1080, 300, -13.12446395
2596, 1080, 330, -13.17222431
2597, 1080, 360, -11.29756311
2598, 1080, 390, -11.25045765
2599, 1080, 420, -9.375251611
2600, 1080, 450, -7.500208479
2601, 1080, 480, -7.509247688
2602, 1080, 510, -7.509172649
2603, 1080, 540, -7.499818805
2604, 1080, 570, -6.133596228
2605, 1080, 600, -6.133785359
2606, 1080, 630, -9.375014432
2607, 1080, 660, -10.23073267
2608, 1080, 690, -8.359597242
2609, 1080, 720, -7.473015479
2610, 1080, 750, -5.594143636
2611, 1080, 780, -1.874999898
2612, 1080, 810, 0
2613, 1080, 840, 0
2614, 1080, 870, 0
2615, 1080, 900, 0
2616, 1080, 930, 0
2617, 1080, 960, 0
2618, 1080, 990, -2.081668171e-15
2619, 1080, 1020, -3.747261928
2620, 1080, 1050, -9.372262065
2621, 1080, 1080, -11.24617275
2622, 1080, 1110, -7.496172611
2623, 1080, 1140, -3.750002717
2624, 1080, 1170, -3.750006475
2625, 1110, 30, -2.319759274
2626, 1110, 60, -4.163336342e-16
2627, 1110, 90, 0
2628, 1110, 120, 0
2629, 1110, 150, 0
2630, 1110, 180, 0
2631, 1110, 210, 0
2632, 1110, 240, -3.749483694
2633, 1110, 270, -11.24894696
2634, 1110, 300, -13.86522829
2635, 1110, 330, -10.1629891
2636, 1110, 360, -7.547412169
2637, 1110, 390, -7.500223006
2638, 1110, 420, -7.499863763
2639, 1110, 450, -7.499814876
2640, 1110, 480, -7.499520649
2641, 1110, 510, -7.475667948
2642, 1110, 540, -5.800204801
2643, 1110, 570, -5.817629948
2644, 1110, 600, -7.493565106
2645, 1110, 630, -9.375006123
2646, 1110, 660, -9.375366321
2647, 1110, 690, -5.625302645
2648, 1110, 720, -3.719075364
2649, 1110, 750, -1.844139546
2650, 1110, 780, -4.787836793e-15
2651, 1110, 810, 0
2652, 1110, 840, 0
2653, 1110, 870, 0
2654, 1110, 900, 0
2655, 1110, 930, 0
2656, 1110, 960, -4.99600361e-15
2657, 1110, 990, -0.9200491005
2658, 1110, 1020, -4.670154139
2659, 1110, 1050, -11.25010504
2660, 1110, 1080, -14.99617269
2661, 1110, 1110, -13.12117269
2662, 1110, 1140, -11.25000272
2663, 1110, 1170, -11.25000647
2664, 1140, 30, -0.4447595559
2665, 1140, 60, 0
2666, 1140, 90, 0
2667, 1140, 120, 0
2668, 1140, 150, 0
2669, 1140, 180, 0
2670, 1140, 210, -1.249000903e-15
2671, 1140, 240, -3.749999998
2672, 1140, 270, -9.375242088
2673, 1140, 300, -10.11600278
2674, 1140, 330, -6.365760461
2675, 1140, 360, -3.749849055
2676, 1140, 390, -3.74974548
2677, 1140, 420, -3.749720509
2678, 1140, 450, -3.74981034
2679, 1140, 480, -3.749520644
2680, 1140, 510, -3.725667944
2681, 1140, 540, -2.050205266
2682, 1140, 570, -2.067630586
2683, 1140, 600, -3.743557853
2684, 1140, 630, -3.749999208
2685, 1140, 660, -3.749996458
2686, 1140, 690, -1.874996454
2687, 1140, 720, -2.706168622e-15
2688, 1140, 750, 0
2689, 1140, 780, 0
2690, 1140, 810, 0
2691, 1140, 840, 0
2692, 1140, 870, 0
2693, 1140, 900, -3.538835891e-15
2694, 1140, 930, -1.874992387
2695, 1140, 960, -3.749992385
2696, 1140, 990, -4.670049086
2697, 1140, 1020, -7.477413692
2698, 1140, 1050, -12.1823646
2699, 1140, 1080, -15
2700, 1140, 1110, -15
2701, 1140, 1140, -15
2702, 1140, 1170, -15
2703, 1170, 30, 0
2704, 1170, 60, 0
2705, 1170, 90, 0
2706, 1170, 120, 0
2707, 1170, 150, 0
2708, 1170, 180, 0
2709, 1170, 210, -1.45716772e-15
2710, 1170, 240, -3.745619475
2711, 1170, 270, -7.478034888
2712, 1170, 300, -5.607411081
2713, 1170, 330, -1.874995668
2714, 1170, 360, -4.163336342e-15
2715, 1170, 390, 0
2716, 1170, 420, 0
2717, 1170, 450, 0
2718, 1170, 480, 0
2719, 1170, 510, 0
2720, 1170, 540, 0
2721, 1170, 570, 0
2722, 1170, 600, 0
2723, 1170, 630, -4.163336342e-16
2724, 1170, 660, -8.326672684e-16
2725, 1170, 690, -4.163336342e-16
2726, 1170, 720, 0
2727, 1170, 750, 0
2728, 1170, 780, 0
2729, 1170, 810, 0
2730, 1170, 840, 0
2731, 1170, 870, 0
2732, 1170, 900, -0.6729733429
2733, 1170, 930, -4.422965733
2734, 1170, 960, -7.533645955
2735, 1170, 990, -9.408593449
2736, 1170, 1020, -12.18219946
2737, 1170, 1050, -14.05725958
2738, 1170, 1080, -15
2739, 1170, 1110, -15
2740, 1170, 1140, -15
2741, 1170, 1170, -15
2742, 1200, 30, 0
2743, 1200, 60, 0
2744, 1200, 90, 0
2745, 1200, 120, 0
2746, 1200, 150, 0
2747, 1200, 180, 0
2748, 1200, 210, -2.081668171e-16
2749, 1200, 240, -1.870619476
2750, 1200, 270, -3.727792799
2751, 1200, 300, -1.857173323
2752, 1200, 330, -2.081668171e-15
2753, 1200, 360, 0
2754, 1200, 390, 0
2755, 1200, 420, 0
2756, 1200, 450, 0
2757, 1200, 480, 0
2758, 1200, 510, 0
2759, 1200, 540, 0
2760, 1200, 570, 0
2761, 1200, 600, 0
2762, 1200, 630, 0
2763, 1200, 660, 0
2764, 1200, 690, 0
2765, 1200, 720, 0
2766, 1200, 750, 0
2767, 1200, 780, 0
2768, 1200, 810, 0
2769, 1200, 840, 0
2770, 1200, 870, 0
2771, 1200, 900, -0.6729733429
2772, 1200, 930, -4.422973072
2773, 1200, 960, -9.408653296
2774, 1200, 990, -13.15859346
2775, 1200, 1020, -14.9999399
2776, 1200, 1050, -13.12539528
2777, 1200, 1080, -11.25039528
2778, 1200, 1110, -11.25000018
2779, 1200, 1140, -11.25000231
2780, 1200, 1170, -11.25000363
2781, 1230, 30, 0
2782, 1230, 60, 0
2783, 1230, 90, 0
2784, 1230, 120, 0
2785, 1230, 150, 0
2786, 1230, 180, 0
2787, 1230, 210, 0
2788, 1230, 240, -2.081668171e-16
2789, 1230, 270, -2.081668171e-16
2790, 1230, 300, 0
2791, 1230, 330, 0
2792, 1230, 360, 0
2793, 1230, 390, 0
2794, 1230, 420, 0
2795, 1230, 450, 0
2796, 1230, 480, 0
2797, 1230, 510, 0
2798, 1230, 540, 0
2799, 1230, 570, 0
2800, 1230, 600, 0
2801, 1230, 630, 0
2802, 1230, 660, 0
2803, 1230, 690, 0
2804, 1230, 720, 0
2805, 1230, 750, 0
2806, 1230, 780, 0
2807, 1230, 810, 0
2808, 1230, 840, -3.538835891e-14
2809, 1230, 870, -3.538835891e-14
2810, 1230, 900, -2.762373663e-13
2811, 1230, 930, -3.750015528
2812, 1230, 960, -11.25001553
2813, 1230, 990, -13.48665568
2814, 1230, 1020, -11.61165567
2815, 1230, 1050, -9.374591614
2816, 1230, 1080, -5.624591616
2817, 1230, 1110, -3.750000184
2818, 1230, 1140, -3.75000231
2819, 1230, 1170, -5.621808951
2820, 1260, 30, 0
2821, 1260, 60, -6.661338147e-15
2822, 1260, 90, -7.285838598e-15
2823, 1260, 120, -6.245004513e-16
2824, 1260, 150, 0
2825, 1260, 180, 0
2826, 1260, 210, 0
2827, 1260, 240, 0
2828, 1260, 270, 0
2829, 1260, 300, 0
2830, 1260, 330, 0
2831, 1260, 360, 0
2832, 1260, 390, 0
2833, 1260, 420, 0
2834, 1260, 450, 0
2835, 1260, 480, 0
2836, 1260, 510, 0
2837, 1260, 540, 0
2838, 1260, 570, 0
2839, 1260, 600, 0
2840, 1260, 630, 0
2841, 1260, 660, 0
2842, 1260, 690, 0
2843, 1260, 720, 0
2844, 1260, 750, 0
2845, 1260, 780, 0
2846, 1260, 810, -2.081668171e-16
2847, 1260, 840, -1.87499998
2848, 1260, 870, -3.749999976
2849, 1260, 900, -3.749999995
2850, 1260, 930, -7.500015801
2851, 1260, 960, -13.12501553
2852, 1260, 990, -11.61157173
2853, 1260, 1020, -5.986571992
2854, 1260, 1050, -3.749196338
2855, 1260, 1080, -1.874196339
2856, 1260, 1110, -3.28903571e-14
2857, 1260, 1140, -8.514022819e-14
2858, 1260, 1170, -1.871805323
2859, 1290, 30, -1.874896711
2860, 1290, 60, -3.749897589
2861, 1290, 90, -3.748403204
2862, 1290, 120, -1.873402326
2863, 1290, 150, -2.081668171e-16
2864, 1290, 180, 0
2865, 1290, 210, 0
2866, 1290, 240, 0
2867, 1290, 270, 0
2868, 1290, 300, 0
2869, 1290, 330, 0
2870, 1290, 360, 0
2871, 1290, 390, 0
2872, 1290, 420, 0
2873, 1290, 450, 0
2874, 1290, 480, 0
2875, 1290, 510, 0
2876, 1290, 540, 0
2877, 1290, 570, 0
2878, 1290, 600, 0
2879, 1290, 630, 0
2880, 1290, 660, 0
2881, 1290, 690, 0
2882, 1290, 720, 0
2883, 1290, 750, 0
2884, 1290, 780, 0
2885, 1290, 810, -2.081668171e-16
2886, 1290, 840, -3.749999928
2887, 1290, 870, -9.374999923
2888, 1290, 900, -11.24999999
2889, 1290, 930, -11.37266338
2890, 1290, 960, -11.37266308
2891, 1290, 990, -7.499916021
2892, 1290, 1020, -1.874916317
2893, 1290, 1050, -2.373101715e-14
2894, 1290, 1080, -3.538835891e-15
2895, 1290, 1110, 0
2896, 1290, 1140, 0
2897, 1290, 1170, 0
2898, 1320, 30, -3.749896717
2899, 1320, 60, -7.502490514
2900, 1320, 90, -7.500962399
2901, 1320, 120, -3.748368602
2902, 1320, 150, -6.245004513e-16
2903, 1320, 180, 0
2904, 1320, 210, 0
2905, 1320, 240, 0
2906, 1320, 270, 0
2907, 1320, 300, 0
2908, 1320, 330, 0
2909, 1320, 360, 0
2910, 1320, 390, 0
2911, 1320, 420, 0
2912, 1320, 450, 0
2913, 1320, 480, 0
2914, 1320, 510, 0
2915, 1320, 540, 0
2916, 1320, 570, 0
2917, 1320, 600, 0
2918, 1320, 630, 0
2919, 1320, 660, 0
2920, 1320, 690, 0
2921, 1320, 720, 0
2922, 1320, 750, 0
2923, 1320, 780, 0
2924, 1320, 810, 0
2925, 1320, 840, -3.749999934
2926, 1320, 870, -11.24999993
2927, 1320, 900, -15
2928, 1320, 930, -11.37266338
2929, 1320, 960, -5.74766335
2930, 1320, 990, -1.874999971
2931, 1320, 1020, -2.081668171e-16
2932, 1320, 1050, 0
2933, 1320, 1080, 0
2934, 1320, 1110, 0
2935, 1320, 1140, 0
2936, 1320, 1170, 0
2937, 1350, 30, -5.624933085
2938, 1350, 60, -7.498685078
2939, 1350, 90, -5.623651345
2940, 1350, 120, -1.874966276
2941, 1350, 150, -4.163336342e-16
2942, 1350, 180, 0
2943, 1350, 210, 0
2944, 1350, 240, 0
2945, 1350, 270, 0
2946, 1350, 300, 0
2947, 1350, 330, 0
2948, 1350, 360, 0
2949, 1350, 390, 0
2950, 1350, 420, 0
2951, 1350, 450, 0
2952, 1350, 480, 0
2953, 1350, 510, 0
2954, 1350, 540, 0
2955, 1350, 570, 0
2956, 1350, 600, 0
2957, 1350, 630, 0
2958, 1350, 660, 0
2959, 1350, 690, 0
2960, 1350, 720, 0
2961, 1350, 750, 0
2962, 1350, 780, 0
2963, 1350, 810, -7.514822097e-14
2964, 1350, 840, -3.750001187
2965, 1350, 870, -11.25000119
2966, 1350, 900, -15
2967, 1350, 930, -11.24999725
2968, 1350, 960, -3.749997251
2969, 1350, 990, -1.873501354e-15
2970, 1350, 1020, 0
2971, 1350, 1050, 0
2972, 1350, 1080, 0
2973, 1350, 1110, 0
2974, 1350, 1140, 0
2975, 1350, 1170, 0
2976, 1380, 30, -7.499928465
2977, 1380, 60, -5.621088574
2978, 1380, 90, -1.87109215
2979, 1380, 120, -8.326672684e-16
2980, 1380, 150, 0
2981, 1380, 180, 0
2982, 1380, 210, 0
2983, 1380, 240, 0
2984, 1380, 270, 0
2985, 1380, 300, 0
2986, 1380, 330, 0
2987, 1380, 360, 0
2988, 1380, 390, 0
2989, 1380, 420, 0
2990, 1380, 450, 0
2991, 1380, 480, 0
2992, 1380, 510, 0
2993, 1380, 540, 0
2994, 1380, 570, 0
2995, 1380, 600, 0
2996, 1380, 630, 0
2997, 1380, 660, 0
2998, 1380, 690, 0
2999, 1380, 720, 0
3000, 1380, 750, 0
3001, 1380, 780, 0
3002, 1380, 810, -1.874999681
3003, 1380, 840, -7.500000881
3004, 1380, 870, -13.1250012
3005, 1380, 900, -15
3006, 1380, 930, -11.24999725
3007, 1380, 960, -3.74999725
3008, 1380, 990, -5.766220834e-14
3009, 1380, 1020, 0
3010, 1380, 1050, 0
3011, 1380, 1080, 0
3012, 1380, 1110, 0
3013, 1380, 1140, 0
3014, 1380, 1170, 0
3015, 1410, 30, -3.749995387
3016, 1410, 60, -1.874996422
3017, 1410, 90, -2.081668171e-16
3018, 1410, 120, 0
3019, 1410, 150, 0
3020, 1410, 180, 0
3021, 1410, 210, 0
3022, 1410, 240, 0
3023, 1410, 270, 0
3024, 1410, 300, 0
3025, 1410, 330, 0
3026, 1410, 360, 0
3027, 1410, 390, 0
3028, 1410, 420, 0
3029, 1410, 450, 0
3030, 1410, 480, 0
3031, 1410, 510, 0
3032, 1410, 540, 0
3033, 1410, 570, 0
3034, 1410, 600, 0
3035, 1410, 630, 0
3036, 1410, 660, 0
3037, 1410, 690, 0
3038, 1410, 720, 0
3039, 1410, 750, 0
3040, 1410, 780, -1.686151218e-14
3041, 1410, 810, -3.750004337
3042, 1410, 840, -11.25000434
3043, 1410, 870, -15
3044, 1410, 900, -15
3045, 1410, 930, -13.12419721
3046, 1410, 960, -7.4991972
3047, 1410, 990, -1.874999994
3048, 1410, 1020, 0
3049, 1410, 1050, 0
3050, 1410, 1080, 0
3051, 1410, 1110, 0
3052, 1410, 1140, 0
3053, 1410, 1170, 0
3054, 1440, 30, -1.727784582e-14
3055, 1440, 60, -1.249000903e-15
3056, 1440, 90, 0
3057, 1440, 120, 0
3058, 1440, 150, 0
3059, 1440, 180, 0
3060, 1440, 210, 0
3061, 1440, 240, 0
3062, 1440, 270, 0
3063, 1440, 300, 0
3064, 1440, 330, 0
3065, 1440, 360, 0
3066, 1440, 390, 0
3067, 1440, 420, 0
3068, 1440, 450, 0
3069, 1440, 480, 0
3070, 1440, 510, 0
3071, 1440, 540, 0
3072, 1440, 570, 0
3073, 1440, 600, 0
3074, 1440, 630, -2.081668171e-16
3075, 1440, 660, -1.165734176e-14
3076, 1440, 690, -1.165734176e-14
3077, 1440, 720, -1.061650767e-14
3078, 1440, 750, -1.47592355e-11
3079, 1440, 780, -1.874751244
3080, 1440, 810, -5.625752151
3081, 1440, 840, -11.25100091
3082, 1440, 870, -15
3083, 1440, 900, -15
3084, 1440, 930, -14.99919721
3085, 1440, 960, -11.24920051
3086, 1440, 990, -3.750003302
3087, 1440, 1020, -4.350686477e-14
3088, 1440, 1050, 0
3089, 1440, 1080, 0
3090, 1440, 1110, 0
3091, 1440, 1140, 0
3092, 1440, 1170, 0
3093, 1470, 30, -2.172703388
3094, 1470, 60, -0.2977046799
3095, 1470, 90, 0
3096, 1470, 120, 0
3097, 1470, 150, 0
3098, 1470, 180, 0
3099, 1470, 210, 0
3100, 1470, 240, 0
3101, 1470, 270, 0
3102, 1470, 300, 0
3103, 1470, 330, 0
3104, 1470, 360, 0
3105, 1470, 390, 0
3106, 1470, 420, 0
3107, 1470, 450, -4.163336342e-16
3108, 1470, 480, -4.163336342e-16
3109, 1470, 510, 0
3110, 1470, 540, 0
3111, 1470, 570, 0
3112, 1470, 600, -1.717376241e-13
3113, 1470, 630, -1.875000025
3114, 1470, 660, -3.752162439
3115, 1470, 690, -3.752162434
3116, 1470, 720, -3.75037529
3117, 1470, 750, -5.625375269
3118, 1470, 780, -9.374751243
3119, 1470, 810, -11.25074749
3120, 1470, 840, -11.92812318
3121, 1470, 870, -13.80212693
3122, 1470, 900, -15
3123, 1470, 930, -15
3124, 1470, 960, -13.12500331
3125, 1470, 990, -7.500003053
3126, 1470, 1020, -1.874999746
3127, 1470, 1050, -6.245004513e-16
3128, 1470, 1080, 0
3129, 1470, 1110, 0
3130, 1470, 1140, 0
3131, 1470, 1170, 0
3132, 1500, 30, -6.043497136
3133, 1500, 60, -2.171278485
3134, 1500, 90, -6.869504964e-15
3135, 1500, 120, 0
3136, 1500, 150, 0
3137, 1500, 180, 0
3138, 1500, 210, 0
3139, 1500, 240, 0
3140, 1500, 270, 0
3141, 1500, 300, 0
3142, 1500, 330, 0
3143, 1500, 360, -5.193762087e-13
3144, 1500, 390, -1.874845825
3145, 1500, 420, -3.74984582
3146, 1500, 450, -3.750000009
3147, 1500, 480, -3.747351443
3148, 1500, 510, -1.872351429
3149, 1500, 540, 0
3150, 1500, 570, 0
3151, 1500, 600, -1.874709648
3152, 1500, 630, -7.499709673
3153, 1500, 660, -11.25216244
3154, 1500, 690, -11.25216243
3155, 1500, 720, -11.25037529
3156, 1500, 750, -13.12537527
3157, 1500, 780, -15
3158, 1500, 810, -15
3159, 1500, 840, -13.80212693
3160, 1500, 870, -13.80212693
3161, 1500, 900, -15
3162, 1500, 930, -15
3163, 1500, 960, -15
3164, 1500, 990, -12.64847272
3165, 1500, 1020, -7.023214452
3166, 1500, 1050, -1.874741734
3167, 1500, 1080, 0
3168, 1500, 1110, 0
3169, 1500, 1140, 0
3170, 1500, 1170, 0
3171, 1530, 30, -9.495786616
3172, 1530, 60, -3.748566674
3173, 1530, 90, -1.540434447e-14
3174, 1530, 120, -8.409939411e-14
3175, 1530, 150, -8.056055822e-14
3176, 1530, 180, -1.45716772e-15
3177, 1530, 210, 0
3178, 1530, 240, 0
3179, 1530, 270, 0
3180, 1530, 300, 0
3181, 1530, 330, -2.361096735e-10
3182, 1530, 360, -1.875002503
3183, 1530, 390, -7.499833118
3184, 1530, 420, -11.24983061
3185, 1530, 450, -11.25000001
3186, 1530, 480, -9.372355886
3187, 1530, 510, -5.618965445
3188, 1530, 540, -1.871609572
3189, 1530, 570, -0.9224191991
3190, 1530, 600, -4.672128846
3191, 1530, 630, -11.24970965
3192, 1530, 660, -15
3193, 1530, 690, -15
3194, 1530, 720, -15
3195, 1530, 750, -15
3196, 1530, 780, -15
3197, 1530, 810, -15
3198, 1530, 840, -15
3199, 1530, 870, -15
3200, 1530, 900, -15
3201, 1530, 930, -15
3202, 1530, 960, -15
3203, 1530, 990, -14.52347297
3204, 1530, 1020, -10.77321472
3205, 1530, 1050, -3.749741748
3206, 1530, 1080, -2.202404925e-13
3207, 1530, 1110, 0
3208, 1530, 1140, 0
3209, 1530, 1170, 0
3210, 1560, 30, -11.25004174
3211, 1560, 60, -5.625035392
3212, 1560, 90, -3.749993651
3213, 1560, 120, -3.750000006
3214, 1560, 150, -3.749999995
3215, 1560, 180, -1.874999989
3216, 1560, 210, -4.163336342e-16
3217, 1560, 240, 0
3218, 1560, 270, 0
3219, 1560, 300, 0
3220, 1560, 330, -1.872921769
3221, 1560, 360, -7.497924271
3222, 1560, 390, -13.12498729
3223, 1560, 420, -14.99998479
3224, 1560, 450, -15
3225, 1560, 480, -13.12500444
3226, 1560, 510, -9.371726824
3227, 1560, 540, -5.621722388
3228, 1560, 570, -4.672423964
3229, 1560, 600, -8.422423959
3230, 1560, 630, -13.125
3231, 1560, 660, -15
3232, 1560, 690, -15
3233, 1560, 720, -15
3234, 1560, 750, -15
3235, 1560, 780, -14.99886111
3236, 1560, 810, -14.99886111
3237, 1560, 840, -13.12503974
3238, 1560, 870, -11.25003974
3239, 1560, 900, -11.25001755
3240, 1560, 930, -12.64656607
3241, 1560, 960, -14.52154851
3242, 1560, 990, -15
3243, 1560, 1020, -13.03302267
3244, 1560, 1050, -7.408022788
3245, 1560, 1080, -3.749995124
3246, 1560, 1110, -1.87499501
3247, 1560, 1140, -3.830269435e-14
3248, 1560, 1170, -1.249000903e-15
3249, 1590, 30, -9.562124601
3250, 1590, 60, -7.923488403
3251, 1590, 90, -9.611996064
3252, 1590, 120, -11.25000001
3253, 1590, 150, -9.375005567
3254, 1590, 180, -3.750005561
3255, 1590, 210, -4.059252933e-14
3256, 1590, 240, -6.245004513e-16
3257, 1590, 270, -8.326672684e-16
3258, 1590, 300, -2.758418493e-12
3259, 1590, 330, -3.747921783
3260, 1590, 360, -11.24792178
3261, 1590, 390, -15
3262, 1590, 420, -15
3263, 1590, 450, -15
3264, 1590, 480, -14.99999999
3265, 1590, 510, -13.12511281
3266, 1590, 540, -11.25011282
3267, 1590, 570, -11.25000476
3268, 1590, 600, -13.12500476
3269, 1590, 630, -15
3270, 1590, 660, -15
3271, 1590, 690, -15
3272, 1590, 720, -15
3273, 1590, 750, -15
3274, 1590, 780, -13.25350706
3275, 1590, 810, -11.37850709
3276, 1590, 840, -7.500039779
3277, 1590, 870, -3.750039743
3278, 1590, 900, -5.625017557
3279, 1590, 930, -10.77156607
3280, 1590, 960, -14.52154851
3281, 1590, 990, -15
3282, 1590, 1020, -14.90802266
3283, 1590, 1050, -13.03302277
3284, 1590, 1080, -11.24999512
3285, 1590, 1110, -7.499995147
3286, 1590, 1140, -3.75000014
3287, 1590, 1170, -3.749993418
3288, 1620, 30, -7.706282667
3289, 1620, 60, -9.817652816
3290, 1620, 90, -13.36200241
3291, 1620, 120, -15
3292, 1620, 150, -11.25000894
3293, 1620, 180, -5.624704391
3294, 1620, 210, -3.749601056
3295, 1620, 240, -3.749906661
3296, 1620, 270, -3.750001115
3297, 1620, 300, -3.750000352
3298, 1620, 330, -7.499999266
3299, 1620, 360, -13.12499897
3300, 1620, 390, -15
3301, 1620, 420, -15
3302, 1620, 450, -15
3303, 1620, 480, -15
3304, 1620, 510, -15
3305, 1620, 540, -15
3306, 1620, 570, -15
3307, 1620, 600, -15
3308, 1620, 630, -15
3309, 1620, 660, -15
3310, 1620, 690, -15
3311, 1620, 720, -15
3312, 1620, 750, -15
3313, 1620, 780, -11.42830972
3314, 1620, 810, -7.678309565
3315, 1620, 840, -3.749999845
3316, 1620, 870, -6.523254852e-10
3317, 1620, 900, -3.749999997
3318, 1620, 930, -11.25
3319, 1620, 960, -15
3320, 1620, 990, -15
3321, 1620, 1020, -15
3322, 1620, 1050, -15
3323, 1620, 1080, -15
3324, 1620, 1110, -13.12500014
3325, 1620, 1140, -11.25000014
3326, 1620, 1170, -9.375007725
3327, 1650, 30, -9.394205041
3328, 1650, 60, -13.144205
3329, 1650, 90, -15
3330, 1650, 120, -15
3331, 1650, 150, -13.12500337
3332, 1650, 180, -11.24969882
3333, 1650, 210, -11.24960105
3334, 1650, 240, -11.24990666
3335, 1650, 270, -11.25000111
3336, 1650, 300, -11.25000035
3337, 1650, 330, -13.12499925
3338, 1650, 360, -14.99999896
3339, 1650, 390, -15
3340, 1650, 420, -15
3341, 1650, 450, -15
3342, 1650, 480, -15
3343, 1650, 510, -15
3344, 1650, 540, -15
3345, 1650, 570, -15
3346, 1650, 600, -15
3347, 1650, 630, -15
3348, 1650, 660, -15
3349, 1650, 690, -15
3350, 1650, 720, -15
3351, 1650, 750, -13.13193058
3352, 1650, 780, -9.430594557
3353, 1650, 810, -7.548663793
3354, 1650, 840, -5.624999739
3355, 1650, 870, -3.749999926
3356, 1650, 900, -5.624999993
3357, 1650, 930, -9.397867969
3358, 1650, 960, -12.74695447
3359, 1650, 990, -14.5990865
3360, 1650, 1020, -15
3361, 1650, 1050, -15
3362, 1650, 1080, -15
3363, 1650, 1110, -15
3364, 1650, 1140, -15
3365, 1650, 1170, -11.25752253
3366, 1680, 30, -11.25033023
3367, 1680, 60, -14.99999806
3368, 1680, 90, -15
3369, 1680, 120, -15
3370, 1680, 150, -15
3371, 1680, 180, -15
3372, 1680, 210, -14.99999999
3373, 1680, 240, -14.99999999
3374, 1680, 270, -15
3375, 1680, 300, -15
3376, 1680, 330, -15
3377, 1680, 360, -15
3378, 1680, 390, -15
3379, 1680, 420, -15
3380, 1680, 450, -15
3381, 1680, 480, -15
3382, 1680, 510, -15
3383, 1680, 540, -15
3384, 1680, 570, -15
3385, 1680, 600, -15
3386, 1680, 630, -15
3387, 1680, 660, -15
3388, 1680, 690, -15
3389, 1680, 720, -14.25390018
3390, 1680, 750, -10.53213291
3391, 1680, 780, -7.528233737
3392, 1680, 810, -7.691380685
3393, 1680, 840, -9.566379608
3394, 1680, 870, -11.24999993
3395, 1680, 900, -9.375009811
3396, 1680, 930, -7.523294239
3397, 1680, 960, -8.997371243
3398, 1680, 990, -10.85035207
3399, 1680, 1020, -13.12626526
3400, 1680, 1050, -15
3401, 1680, 1080, -15
3402, 1680, 1110, -15
3403, 1680, 1140, -14.99999999
3404, 1680, 1170, -11.2575549
3405, 1710, 30, -11.2511049
3406, 1710, 60, -15
3407, 1710, 90, -15
3408, 1710, 120, -15
3409, 1710, 150, -15
3410, 1710, 180, -15
3411, 1710, 210, -15
3412, 1710, 240, -15
3413, 1710, 270, -15
3414, 1710, 300, -15
3415, 1710, 330, -15
3416, 1710, 360, -15
3417, 1710, 390, -15
3418, 1710, 420, -15
3419, 1710, 450, -15
3420, 1710, 480, -15
3421, 1710, 510, -15
3422, 1710, 540, -15
3423, 1710, 570, -15
3424, 1710, 600, -15
3425, 1710, 630, -15
3426, 1710, 660, -13.28690466
3427, 1710, 690, -11.4119939
3428, 1710, 720, -12.37898803
3429, 1710, 750, -12.40020095
3430, 1710, 780, -11.27130295
3431, 1710, 810, -11.44138047
3432, 1710, 840, -13.31637968
3433, 1710, 870, -15
3434, 1710, 900, -13.12500981
3435, 1710, 930, -11.25042626
3436, 1710, 960, -9.472332193
3437, 1710, 990, -7.598353111
3438, 1710, 1020, -10.78395856
3439, 1710, 1050, -14.53252119
3440, 1710, 1080, -15
3441, 1710, 1110, -15
3442, 1710, 1140, -14.99999999
3443, 1710, 1170, -11.2500516
3444, 1740, 30, -11.25077287
3445, 1740, 60, -15
3446, 1740, 90, -15
3447, 1740, 120, -15
3448, 1740, 150, -15
3449, 1740, 180, -15
3450, 1740, 210, -15
3451, 1740, 240, -15
3452, 1740, 270, -15
3453, 1740, 300, -15
3454, 1740, 330, -15
3455, 1740, 360, -15
3456, 1740, 390, -15
3457, 1740, 420, -15
3458, 1740, 450, -15
3459, 1740, 480, -15
3460, 1740, 510, -15
3461, 1740, 540, -13.12527797
3462, 1740, 570, -11.25027783
3463, 1740, 600, -11.24556628
3464, 1740, 630, -9.370566586
3465, 1740, 660, -5.786904823
3466, 1740, 690, -5.786989737
3467, 1740, 720, -11.2500825
3468, 1740, 750, -14.99999743
3469, 1740, 780, -15
3470, 1740, 810, -15
3471, 1740, 840, -15
3472, 1740, 870, -15
3473, 1740, 900, -15
3474, 1740, 930, -15
3475, 1740, 960, -13.22191541
3476, 1740, 990, -11.34708751
3477, 1740, 1020, -12.05612246
3478, 1740, 1050, -13.93095036
3479, 1740, 1080, -15
3480, 1740, 1110, -15
3481, 1740, 1140, -15
3482, 1740, 1170, -11.25002026
3483, 1770, 30, -11.25042711
3484, 1770, 60, -14.99999962
3485, 1770, 90, -14.9999996
3486, 1770, 120, -14.99999997
3487, 1770, 150, -15
3488, 1770, 180, -15
3489, 1770, 210, -15
3490, 1770, 240, -15
3491, 1770, 270, -15
3492, 1770, 300, -15
3493, 1770, 330, -15
3494, 1770, 360, -15
3495, 1770, 390, -15
3496, 1770, 420, -15
3497, 1770, 450, -14.99999713
3498, 1770, 480, -14.99999713
3499, 1770, 510, -15
3500, 1770, 540, -11.25027788
3501, 1770, 570, -5.625277737
3502, 1770, 600, -3.745566285
3503, 1770, 630, -1.870566587
3504, 1770, 660, -1.605095752e-07
3505, 1770, 690, -1.874995838
3506, 1770, 720, -7.499997409
3507, 1770, 750, -13.12500157
3508, 1770, 780, -15
3509, 1770, 810, -15
3510, 1770, 840, -15
3511, 1770, 870, -15
3512, 1770, 900, -15
3513, 1770, 930, -15
3514, 1770, 960, -14.99999998
3515, 1770, 990, -14.99999998
3516, 1770, 1020, -12.52384867
3517, 1770, 1050, -10.64935422
3518, 1770, 1080, -13.12550554
3519, 1770, 1110, -15
3520, 1770, 1140, -15
3521, 1770, 1170, -11.2500182
3522, 26.05581439, -4.080192009, 1.250000646
3523, 22.11162878, -8.160384018, 17.5
3524, 18.16744317, -12.24057603, 26.25
3525, 56.19182079, -4.080192009, 1.250001354
3526, 52.38364158, -8.160384018, 17.5
3527, 48.57546238, -12.24057603, 26.25
3528, 86.32782719, -4.080192009, 1.248645891
3529, 82.65565438, -8.160384018, 17.5
3530, 78.98348158, -12.24057603, 26.25
3531, 116.4638336, -4.080192009, 1.248645906
3532, 112.9276672, -8.160384018, 17.5
3533, 109.3915008, -12.24057603, 26.25
3534, 146.59984, -4.080192009, 1.250000001
3535, 143.19968, -8.160384018, 17.5
3536, 139.79952, -12.24057603, 26.25
3537, 176.7358464, -4.080192009, 1.249786931
3538, 173.4716928, -8.160384018, 17.5
3539, 170.2075392, -12.24057603, 26.25
3540, 206.8718528, -4.080192009, -2.500213072
3541, 203.7437056, -8.160384018, 17.5
3542, 200.6155584, -12.24057603, 26.25
3543, 237.0078592, -4.080192009, -6.249999998
3544, 234.0157184, -8.160384018, 17.5
3545, 231.0235776, -12.24057603, 26.25
3546, 267.1438656, -4.080192009, -6.249999998
3547, 264.2877312, -8.160384018, 17.5
3548, 261.4315968, -12.24057603, 26.25
3549, 297.279872, -4.080192009, -2.49999999
3550, 294.559744, -8.160384018, 17.5
3551, 291.839616, -12.24057603, 26.25
3552, 327.4158784, -4.080192009, 5.000000009
3553, 324.8317568, -8.160384018, 17.5
3554, 322.2476352, -12.24057603, 26.25
3555, 357.5518848, -4.080192009, 8.75
3556, 355.1037696, -8.160384018, 17.5
3557, 352.6556544, -12.24057603, 26.25
3558, 387.6878912, -4.080192009, 5.000051818
3559, 385.3757824, -8.160384018, 17.5
3560, 383.0636736, -12.24057603, 26.25
3561, 417.8238976, -4.080192009, 1.251368832
3562, 415.6477952, -8.160384018, 17.5
3563, 413.4716928, -12.24057603, 26.25
3564, 447.959904, -4.080192009, 5.001317015
3565, 445.919808, -8.160384018, 17.5
3566, 443.879712, -12.24057603, 26.25
3567, 478.0959104, -4.080192009, 8.75
3568, 476.1918208, -8.160384018, 17.5
3569, 474.2877312, -12.24057603, 26.25
3570, 508.2319168, -4.080192009, 8.75
3571, 506.4638336, -8.160384018, 17.5
3572, 504.6957504, -12.24057603, 26.25
3573, 538.3679232, -4.080192009, 8.75
3574, 536.7358464, -8.160384018, 17.5
3575, 535.1037696, -12.24057603, 26.25
3576, 568.5039296, -4.080192009, 8.75
3577, 567.0078592, -8.160384018, 17.5
3578, 565.5117888, -12.24057603, 26.25
3579, 598.639936, -4.080192009, 8.75
3580, 597.279872, -8.160384018, 17.5
3581, 595.919808, -12.24057603, 26.25
3582, 628.7759424, -4.080192009, 8.75
3583, 627.5518848, -8.160384018, 17.5
3584, 626.3278272, -12.24057603, 26.25
3585, 658.9119488, -4.080192009, 5.000062873
3586, 657.8238976, -8.160384018, 17.5
3587, 656.7358464, -12.24057603, 26.25
3588, 689.0479552, -4.080192009, 1.250062873
3589, 688.0959104, -8.160384018, 17.5
3590, 687.1438656, -12.24057603, 26.25
3591, 719.1839616, -4.080192009, 1.250004308
3592, 718.3679232, -8.160384018, 17.5
3593, 717.5518848, -12.24057603, 26.25
3594, 749.319968, -4.080192009, 1.250004327
3595, 748.639936, -8.160384018, 17.5
3596, 747.959904, -12.24057603, 26.25
3597, 779.4559744, -4.080192009, 1.042060065
3598, 778.9119488, -8.160384018, 17.5
3599, 778.3679232, -12.24057603, 26.25
3600, 809.5919808, -4.080192009, -2.707939952
3601, 809.1839616, -8.160384018, 17.5
3602, 808.7759424, -12.24057603, 26.25
3603, 839.7279872, -4.080192009, -6.249999998
3604, 839.4559744, -8.160384018, 17.5
3605, 839.1839616, -12.24057603, 26.25
3606, 869.8639936, -4.080192009, -2.502368302
3607, 869.7279872, -8.160384018, 17.5
3608, 869.5919808, -12.24057603, 26.25
3609, 900, -4.080192009, 1.245263395
3610, 900, -8.160384018, 17.5
3611, 900, -12.24057603, 26.25
3612, 930.1360064, -4.080192009, -2.502368302
3613, 930.2720128, -8.160384018, 17.5
3614, 930.4080192, -12.24057603, 26.25
3615, 960.2720128, -4.080192009, -6.249999998
3616, 960.5440256, -8.160384018, 17.5
3617, 960.8160384, -12.24057603, 26.25
3618, 990.4080192, -4.080192009, -2.707939952
3619, 990.8160384, -8.160384018, 17.5
3620, 991.2240576, -12.24057603, 26.25
3621, 1020.544026, -4.080192009, 1.042060065
3622, 1021.088051, -8.160384018, 17.5
3623, 1021.632077, -12.24057603, 26.25
3624, 1050.680032, -4.080192009, 1.250004327
3625, 1051.360064, -8.160384018, 17.5
3626, 1052.040096, -12.24057603, 26.25
3627, 1080.816038, -4.080192009, 1.250004308
3628, 1081.632077, -8.160384018, 17.5
3629, 1082.448115, -12.24057603, 26.25
3630, 1110.952045, -4.080192009, 1.250062873
3631, 1111.90409, -8.160384018, 17.5
3632, 1112.856134, -12.24057603, 26.25
3633, 1141.088051, -4.080192009, 5.000062873
3634, 1142.176102, -8.160384018, 17.5
3635, 1143.264154, -12.24057603, 26.25
3636, 1171.224058, -4.080192009, 8.75
3637, 1172.448115, -8.160384018, 17.5
3638, 1173.672173, -12.24057603, 26.25
3639, 1201.360064, -4.080192009, 8.75
3640, 1202.720128, -8.160384018, 17.5
3641, 1204.080192, -12.24057603, 26.25
3642, 1231.49607, -4.080192009, 8.75
3643, 1232.992141, -8.160384018, 17.5
3644, 1234.488211, -12.24057603, 26.25
3645, 1261.632077, -4.080192009, 8.75
3646, 1263.264154, -8.160384018, 17.5
3647, 1264.89623, -12.24057603, 26.25
3648, 1291.768083, -4.080192009, 8.75
3649, 1293.536166, -8.160384018, 17.5
3650, 1295.30425, -12.24057603, 26.25
3651, 1321.90409, -4.080192009, 8.75
3652, 1323.808179, -8.160384018, 17.5
3653, 1325.712269, -12.24057603, 26.25
3654, 1352.040096, -4.080192009, 5.001317015
3655, 1354.080192, -8.160384018, 17.5
3656, 1356.120288, -12.24057603, 26.25
3657, 1382.176102, -4.080192009, 1.251368832
3658, 1384.352205, -8.160384018, 17.5
3659, 1386.528307, -12.24057603, 26.25
3660, 1412.312109, -4.080192009, 5.000051818
3661, 1414.624218, -8.160384018, 17.5
3662, 1416.936326, -12.24057603, 26.25
3663, 1442.448115, -4.080192009, 8.75
3664, 1444.89623, -8.160384018, 17.5
3665, 1447.344346, -12.24057603, 26.25
3666, 1472.584122, -4.080192009, 5.000000009
3667, 1475.168243, -8.160384018, 17.5
3668, 1477.752365, -12.24057603, 26.25
3669, 1502.720128, -4.080192009, -2.49999999
3670, 1505.440256, -8.160384018, 17.5
3671, 1508.160384, -12.24057603, 26.25
3672, 1532.856134, -4.080192009, -6.249999998
3673, 1535.712269, -8.160384018, 17.5
3674, 1538.568403, -12.24057603, 26.25
3675, 1562.992141, -4.080192009, -6.249999998
3676, 1565.984282, -8.160384018, 17.5
3677, 1568.976422, -12.24057603, 26.25
3678, 1593.128147, -4.080192009, -2.500213072
3679, 1596.256294, -8.160384018, 17.5
3680, 1599.384442, -12.24057603, 26.25
3681, 1623.264154, -4.080192009, 1.249786931
3682, 1626.528307, -8.160384018, 17.5
3683, 1629.792461, -12.24057603, 26.25
3684, 1653.40016, -4.080192009, 1.250000001
3685, 1656.80032, -8.160384018, 17.5
3686, 1660.20048, -12.24057603, 26.25
3687, 1683.536166, -4.080192009, 1.248645906
3688, 1687.072333, -8.160384018, 17.5
3689, 1690.608499, -12.24057603, 26.25
3690, 1713.672173, -4.080192009, 1.248645891
3691, 1717.344346, -8.160384018, 17.5
3692, 1721.016518, -12.24057603, 26.25
3693, 1743.808179, -4.080192009, 1.250001354
3694, 1747.616358, -8.160384018, 17.5
3695, 1751.424538, -12.24057603, 26.25
3696, 1773.944186, -4.080192009, 1.250000646
3697, 1777.888371, -8.160384018, 17.5
3698, 1781.832557, -12.24057603, 26.25
3699, 1804.080192, 26.12381759, 0.1386062399
3700, 1808.160384, 22.24763518, 17.5
3701, 1812.240576, 18.37145277, 26.25
3702, 1804.080192, 56.32782719, -3.508324463
3703, 1808.160384, 52.65565438, 17.5
3704, 1812.240576, 48.98348158, 26.25
3705, 1804.080192, 86.53183679, -6.204214832
3706, 1808.160384, 83.06367358, 17.5
3707, 1812.240576, 79.59551038, 26.25
3708, 1804.080192, 116.7358464, -6.215122139
3709, 1808.160384, 113.4716928, 17.5
3710, 1812.240576, 110.2075392, 26.25
3711, 1804.080192, 146.939856, -6.249999998
3712, 1808.160384, 143.879712, 17.5
3713, 1812.240576, 140.819568, 26.25
3714, 1804.080192, 177.1438656, -6.249999998
3715, 1808.160384, 174.2877312, 17.5
3716, 1812.240576, 171.4315968, 26.25
3717, 1804.080192, 207.3478752, -6.249999998
3718, 1808.160384, 204.6957504, 17.5
3719, 1812.240576, 202.0436256, 26.25
3720, 1804.080192, 237.5518848, -6.249999998
3721, 1808.160384, 235.1037696, 17.5
3722, 1812.240576, 232.6556544, 26.25
3723, 1804.080192, 267.7558944, -6.249999998
3724, 1808.160384, 265.5117888, 17.5
3725, 1812.240576, 263.2676832, 26.25
3726, 1804.080192, 297.959904, -6.249999998
3727, 1808.160384, 295.919808, 17.5
3728, 1812.240576, 293.879712, 26.25
3729, 1804.080192, 328.1639136, -6.249999998
3730, 1808.160384, 326.3278272, 17.5
3731, 1812.240576, 324.4917408, 26.25
3732, 1804.080192, 358.3679232, -6.249999998
3733, 1808.160384, 356.7358464, 17.5
3734, 1812.240576, 355.1037696, 26.25
3735, 1804.080192, 388.5719328, -6.249999998
3736, 1808.160384, 387.1438656, 17.5
3737, 1812.240576, 385.7157984, 26.25
3738, 1804.080192, 418.7759424, -6.249745737
3739, 1808.160384, 417.5518848, 17.5
3740, 1812.240576, 416.3278272, 26.25
3741, 1804.080192, 448.979952, -2.737054953
3742, 1808.160384, 447.959904, 17.5
3743, 1812.240576, 446.939856, 26.25
3744, 1804.080192, 479.1839616, -2.737309214
3745, 1808.160384, 478.3679232, 17.5
3746, 1812.240576, 477.5518848, 26.25
3747, 1804.080192, 509.3879712, -3.014597545
3748, 1808.160384, 508.7759424, 17.5
3749, 1812.240576, 508.1639136, 26.25
3750, 1804.080192, 539.5919808, 0.7428989859
3751, 1808.160384, 539.1839616, 17.5
3752, 1812.240576, 538.7759424, 26.25
3753, 1804.080192, 569.7959904, 5.007496532
3754, 1808.160384, 569.5919808, 17.5
3755, 1812.240576, 569.3879712, 26.25
3756, 1804.080192, 600, 8.75
3757, 1808.160384, 600, 17.5
3758, 1812.240576, 600, 26.25
3759, 1804.080192, 630.2040096, 8.75
3760, 1808.160384, 630.4080192, 17.5
3761, 1812.240576, 630.6120288, 26.25
3762, 1804.080192, 660.4080192, 8.75
3763, 1808.160384, 660.8160384, 17.5
3764, 1812.240576, 661.2240576, 26.25
3765, 1804.080192, 690.6120288, 8.75
3766, 1808.160384, 691.2240576, 17.5
3767, 1812.240576, 691.8360864, 26.25
3768, 1804.080192, 720.8160384, 5.000000029
3769, 1808.160384, 721.6320768, 17.5
3770, 1812.240576, 722.4481152, 26.25
3771, 1804.080192, 751.020048, -2.49999997
3772, 1808.160384, 752.040096, 17.5
3773, 1812.240576, 753.060144, 26.25
3774, 1804.080192, 781.2240576, -6.249999998
3775, 1808.160384, 782.4481152, 17.5
3776, 1812.240576, 783.6721728, 26.25
3777, 1804.080192, 811.4280672, -6.249999998
3778, 1808.160384, 812.8561344, 17.5
3779, 1812.240576, 814.2842016, 26.25
3780, 1804.080192, 841.6320768, -6.249999998
3781, 1808.160384, 843.2641536, 17.5
3782, 1812.240576, 844.8962304, 26.25
3783, 1804.080192, 871.8360864, -6.249999998
3784, 1808.160384, 873.6721728, 17.5
3785, 1812.240576, 875.5082592, 26.25
3786, 1804.080192, 902.040096, -6.249999998
3787, 1808.160384, 904.080192, 17.5
3788, 1812.240576, 906.120288, 26.25
3789, 1804.080192, 932.2441056, -6.249999998
3790, 1808.160384, 934.4882112, 17.5
3791, 1812.240576, 936.7323168, 26.25
3792, 1804.080192, 962.4481152, -6.249999998
3793, 1808.160384, 964.8962304, 17.5
3794, 1812.240576, 967.3443456, 26.25
3795, 1804.080192, 992.6521248, -6.249999998
3796, 1808.160384, 995.3042496, 17.5
3797, 1812.240576, 997.9563744, 26.25
3798, 1804.080192, 1022.856134, -2.500000063
3799, 1808.160384, 1025.712269, 17.5
3800, 1812.240576, 1028.568403, 26.25
3801, 1804.080192, 1053.060144, 1.249955447
3802, 1808.160384, 1056.120288, 17.5
3803, 1812.240576, 1059.180432, 26.25
3804, 1804.080192, 1083.264154, -2.500044488
3805, 1808.160384, 1086.528307, 17.5
3806, 1812.240576, 1089.792461, 26.25
3807, 1804.080192, 1113.468163, -6.249999998
3808, 1808.160384, 1116.936326, 17.5
3809, 1812.240576, 1120.40449, 26.25
3810, 1804.080192, 1143.672173, -2.540748237
3811, 1808.160384, 1147.344346, 17.5
3812, 1812.240576, 1151.016518, 26.25
3813, 1804.080192, 1173.876182, 1.209250244
3814, 1808.160384, 1177.752365, 17.5
3815, 1812.240576, 1181.628547, 26.25
3816, 1773.944186, 1204.080192, 1.249999965
3817, 1777.888371, 1208.160384, 17.5
3818, 1781.832557, 1212.240576, 26.25
3819, 1743.808179, 1204.080192, 1.249999522
3820, 1747.616358, 1208.160384, 17.5
3821, 1751.424538, 1212.240576, 26.25
3822, 1713.672173, 1204.080192, 1.249996921
3823, 1717.344346, 1208.160384, 17.5
3824, 1721.016518, 1212.240576, 26.25
3825, 1683.536166, 1204.080192, 1.249725361
3826, 1687.072333, 1208.160384, 17.5
3827, 1690.608499, 1212.240576, 26.25
3828, 1653.40016, 1204.080192, 1.249727966
3829, 1656.80032, 1208.160384, 17.5
3830, 1660.20048, 1212.240576, 26.25
3831, 1623.264154, 1204.080192, 1.259282946
3832, 1626.528307, 1208.160384, 17.5
3833, 1629.792461, 1212.240576, 26.25
3834, 1593.128147, 1204.080192, 5.00928294
3835, 1596.256294, 1208.160384, 17.5
3836, 1599.384442, 1212.240576, 26.25
3837, 1562.992141, 1204.080192, 8.75
3838, 1565.984282, 1208.160384, 17.5
3839, 1568.976422, 1212.240576, 26.25
3840, 1532.856134, 1204.080192, 8.75
3841, 1535.712269, 1208.160384, 17.5
3842, 1538.568403, 1212.240576, 26.25
3843, 1502.720128, 1204.080192, 8.75
3844, 1505.440256, 1208.160384, 17.5
3845, 1508.160384, 1212.240576, 26.25
3846, 1472.584122, 1204.080192, 8.75
3847, 1475.168243, 1208.160384, 17.5
3848, 1477.752365, 1212.240576, 26.25
3849, 1442.448115, 1204.080192, 8.75
3850, 1444.89623, 1208.160384, 17.5
3851, 1447.344346, 1212.240576, 26.25
3852, 1412.312109, 1204.080192, 8.75
3853, 1414.624218, 1208.160384, 17.5
3854, 1416.936326, 1212.240576, 26.25
3855, 1382.176102, 1204.080192, 8.75
3856, 1384.352205, 1208.160384, 17.5
3857, 1386.528307, 1212.240576, 26.25
3858, 1352.040096, 1204.080192, 8.75
3859, 1354.080192, 1208.160384, 17.5
3860, 1356.120288, 1212.240576, 26.25
3861, 1321.90409, 1204.080192, 8.75
3862, 1323.808179, 1208.160384, 17.5
3863, 1325.712269, 1212.240576, 26.25
3864, 1291.768083, 1204.080192, 8.75
3865, 1293.536166, 1208.160384, 17.5
3866, 1295.30425, 1212.240576, 26.25
3867, 1261.632077, 1204.080192, 5.000042457
3868, 1263.264154, 1208.160384, 17.5
3869, 1264.89623, 1212.240576, 26.25
3870, 1231.49607, 1204.080192, 1.250041343
3871, 1232.992141, 1208.160384, 17.5
3872, 1234.488211, 1212.240576, 26.25
3873, 1201.360064, 1204.080192, -2.500001113
3874, 1202.720128, 1208.160384, 17.5
3875, 1204.080192, 1212.240576, 26.25
3876, 1171.224058, 1204.080192, -6.249999998
3877, 1172.448115, 1208.160384, 17.5
3878, 1173.672173, 1212.240576, 26.25
3879, 1141.088051, 1204.080192, -6.249999998
3880, 1142.176102, 1208.160384, 17.5
3881, 1143.264154, 1212.240576, 26.25
3882, 1110.952045, 1204.080192, -2.500002361
3883, 1111.90409, 1208.160384, 17.5
3884, 1112.856134, 1212.240576, 26.25
3885, 1080.816038, 1204.080192, 4.999997638
3886, 1081.632077, 1208.160384, 17.5
3887, 1082.448115, 1212.240576, 26.25
3888, 1050.680032, 1204.080192, 8.75
3889, 1051.360064, 1208.160384, 17.5
3890, 1052.040096, 1212.240576, 26.25
3891, 1020.544026, 1204.080192, 8.75
3892, 1021.088051, 1208.160384, 17.5
3893, 1021.632077, 1212.240576, 26.25
3894, 990.4080192, 1204.080192, 8.75
3895, 990.8160384, 1208.160384, 17.5
3896, 991.2240576, 1212.240576, 26.25
3897, 960.2720128, 1204.080192, 8.75
3898, 960.5440256, 1208.160384, 17.5
3899, 960.8160384, 1212.240576, 26.25
3900, 930.1360064, 1204.080192, 8.75
3901, 930.2720128, 1208.160384, 17.5
3902, 930.4080192, 1212.240576, 26.25
3903, 900, 1204.080192, 8.75
3904, 900, 1208.160384, 17.5
3905, 900, 1212.240576, 26.25
3906, 869.8639936, 1204.080192, 8.75
3907, 869.7279872, 1208.160384, 17.5
3908, 869.5919808, 1212.240576, 26.25
3909, 839.7279872, 1204.080192, 8.75
3910, 839.4559744, 1208.160384, 17.5
3911, 839.1839616, 1212.240576, 26.25
3912, 809.5919808, 1204.080192, 8.75
3913, 809.1839616, 1208.160384, 17.5
3914, 808.7759424, 1212.240576, 26.25
3915, 779.4559744, 1204.080192, 8.75
3916, 778.9119488, 1208.160384, 17.5
3917, 778.3679232, 1212.240576, 26.25
3918, 749.319968, 1204.080192, 8.75
3919, 748.639936, 1208.160384, 17.5
3920, 747.959904, 1212.240576, 26.25
3921, 719.1839616, 1204.080192, 4.999997638
3922, 718.3679232, 1208.160384, 17.5
3923, 717.5518848, 1212.240576, 26.25
3924, 689.0479552, 1204.080192, -2.500002361
3925, 688.0959104, 1208.160384, 17.5
3926, 687.1438656, 1212.240576, 26.25
3927, 658.9119488, 1204.080192, -6.249999998
3928, 657.8238976, 1208.160384, 17.5
3929, 656.7358464, 1212.240576, 26.25
3930, 628.7759424, 1204.080192, -6.249999998
3931, 627.5518848, 1208.160384, 17.5
3932, 626.3278272, 1212.240576, 26.25
3933, 598.639936, 1204.080192, -2.500001113
3934, 597.279872, 1208.160384, 17.5
3935, 595.919808, 1212.240576, 26.25
3936, 568.5039296, 1204.080192, 1.250041343
3937, 567.0078592, 1208.160384, 17.5
3938, 565.5117888, 1212.240576, 26.25
3939, 538.3679232, 1204.080192, 5.000042457
3940, 536.7358464, 1208.160384, 17.5
3941, 535.1037696, 1212.240576, 26.25
3942, 508.2319168, 1204.080192, 8.75
3943, 506.4638336, 1208.160384, 17.5
3944, 504.6957504, 1212.240576, 26.25
3945, 478.0959104, 1204.080192, 8.75
3946, 476.1918208, 1208.160384, 17.5
3947, 474.2877312, 1212.240576, 26.25
3948, 447.959904, 1204.080192, 8.75
3949, 445.919808, 1208.160384, 17.5
3950, 443.879712, 1212.240576, 26.25
3951, 417.8238976, 1204.080192, 8.75
3952, 415.6477952, 1208.160384, 17.5
3953, 413.4716928, 1212.240576, 26.25
3954, 387.6878912, 1204.080192, 8.75
3955, 385.3757824, 1208.160384, 17.5
3956, 383.0636736, 1212.240576, 26.25
3957, 357.5518848, 1204.080192, 8.75
3958, 355.1037696, 1208.160384, 17.5
3959, 352.6556544, 1212.240576, 26.25
3960, 327.4158784, 1204.080192, 8.75
3961, 324.8317568, 1208.160384, 17.5
3962, 322.2476352, 1212.240576, 26.25
3963, 297.279872, 1204.080192, 8.75
3964, 294.559744, 1208.160384, 17.5
3965, 291.839616, 1212.240576, 26.25
3966, 267.1438656, 1204.080192, 8.75
3967, 264.2877312, 1208.160384, 17.5
3968, 261.4315968, 1212.240576, 26.25
3969, 237.0078592, 1204.080192, 8.75
3970, 234.0157184, 1208.160384, 17.5
3971, 231.0235776, 1212.240576, 26.25
3972, 206.8718528, 1204.080192, 5.00928294
3973, 203.7437056, 1208.160384, 17.5
3974, 200.6155584, 1212.240576, 26.25
3975, 176.7358464, 1204.080192, 1.259282946
3976, 173.4716928, 1208.160384, 17.5
3977, 170.2075392, 1212.240576, 26.25
3978, 146.59984, 1204.080192, 1.249727966
3979, 143.19968, 1208.160384, 17.5
3980, 139.79952, 1212.240576, 26.25
3981, 116.4638336, 1204.080192, 1.249725361
3982, 112.9276672, 1208.160384, 17.5
3983, 109.3915008, 1212.240576, 26.25
3984, 86.32782719, 1204.080192, 1.249996921
3985, 82.65565438, 1208.160384, 17.5
3986, 78.98348158, 1212.240576, 26.25
3987, 56.19182079, 1204.080192, 1.249999522
3988, 52.38364158, 1208.160384, 17.5
3989, 48.57546238, 1212.240576, 26.25
3990, 26.05581439, 1204.080192, 1.249999965
3991, 22.11162878, 1208.160384, 17.5
3992, 18.16744317, 1212.240576, 26.25
3993, -4.080192009, 1173.876182, 1.209250244
3994, -8.160384018, 1177.752365, 17.5
3995, -12.24057603, 1181.628547, 26.25
3996, -4.080192009, 1143.672173, -2.540748237
3997, -8.160384018, 1147.344346, 17.5
3998, -12.24057603, 1151.016518, 26.25
3999, -4.080192009, 1113.468163, -6.249999998
4000, -8.160384018, 1116.936326, 17.5
4001, -12.24057603, 1120.40449, 26.25
4002, -4.080192009, 1083.264154, -2.500044488
4003, -8.160384018, 1086.528307, 17.5
4004, -12.24057603, 1089.792461, 26.25
4005, -4.080192009, 1053.060144, 1.249955447
4006, -8.160384018, 1056.120288, 17.5
4007, -12.24057603, 1059.180432, 26.25
4008, -4.080192009, 1022.856134, -2.500000063
4009, -8.160384018, 1025.712269, 17.5
4010, -12.24057603, 1028.568403, 26.25
4011, -4.080192009, 992.6521248, -6.249999998
4012, -8.160384018, 995.3042496, 17.5
4013, -12.24057603, 997.9563744, 26.25
4014, -4.080192009, 962.4481152, -6.249999998
4015, -8.160384018, 964.8962304, 17.5
4016, -12.24057603, 967.3443456, 26.25
4017, -4.080192009, 932.2441056, -6.249999998
4018, -8.160384018, 934.4882112, 17.5
4019, -12.24057603, 936.7323168, 26.25
4020, -4.080192009, 902.040096, -6.249999998
4021, -8.160384018, 904.080192, 17.5
4022, -12.24057603, 906.120288, 26.25
4023, -4.080192009, 871.8360864, -6.249999998
4024, -8.160384018, 873.6721728, 17.5
4025, -12.24057603, 875.5082592, 26.25
4026, -4.080192009, 841.6320768, -6.249999998
4027, -8.160384018, 843.2641536, 17.5
4028, -12.24057603, 844.8962304, 26.25
4029, -4.080192009, 811.4280672, -6.249999998
4030, -8.160384018, 812.8561344, 17.5
4031, -12.24057603, 814.2842016, 26.25
4032, -4.080192009, 781.2240576, -6.249999998
4033, -8.160384018, 782.4481152, 17.5
4034, -12.24057603, 783.6721728, 26.25
4035, -4.080192009, 751.020048, -2.49999997
4036, -8.160384018, 752.040096, 17.5
4037, -12.24057603, 753.060144, 26.25
4038, -4.080192009, 720.8160384, 5.000000029
4039, -8.160384018, 721.6320768, 17.5
4040, -12.24057603, 722.4481152, 26.25
4041, -4.080192009, 690.6120288, 8.75
4042, -8.160384018, 691.2240576, 17.5
4043, -12.24057603, 691.8360864, 26.25
4044, -4.080192009, 660.4080192, 8.75
4045, -8.160384018, 660.8160384, 17.5
4046, -12.24057603, 661.2240576, 26.25
4047, -4.080192009, 630.2040096, 8.75
4048, -8.160384018, 630.4080192, 17.5
4049, -12.24057603, 630.6120288, 26.25
4050, -4.080192009, 600, 8.75
4051, -8.160384018, 600, 17.5
4052, -12.24057603, 600, 26.25
4053, -4.080192009, 569.7959904, 5.007496532
4054, -8.160384018, 569.5919808, 17.5
4055, -12.24057603, 569.3879712, 26.25
4056, -4.080192009, 539.5919808, 0.7428989859
4057, -8.160384018, 539.1839616, 17.5
4058, -12.24057603, 538.7759424, 26.25
4059, -4.080192009, 509.3879712, -3.014597545
4060, -8.160384018, 508.7759424, 17.5
4061, -12.24057603, 508.1639136, 26.25
4062, -4.080192009, 479.1839616, -2.737309214
4063, -8.160384018, 478.3679232, 17.5
4064, -12.24057603, 477.5518848, 26.25
4065, -4.080192009, 448.979952, -2.737054953
4066, -8.160384018, 447.959904, 17.5
4067, -12.24057603, 446.939856, 26.25
4068, -4.080192009, 418.7759424, -6.249745737
4069, -8.160384018, 417.5518848, 17.5
4070, -12.24057603, 416.3278272, 26.25
4071, -4.080192009, 388.5719328, -6.249999998
4072, -8.160384018, 387.1438656, 17.5
4073, -12.24057603, 385.7157984, 26.25
4074, -4.080192009, 358.3679232, -6.249999998
4075, -8.160384018, 356.7358464, 17.5
4076, -12.24057603, 355.1037696, 26.25
4077, -4.080192009, 328.1639136, -6.249999998
4078, -8.160384018, 326.3278272, 17.5
4079, -12.24057603, 324.4917408, 26.25
4080, -4.080192009, 297.959904, -6.249999998
4081, -8.160384018, 295.919808, 17.5
4082, -12.24057603, 293.879712, 26.25
4083, -4.080192009, 267.7558944, -6.249999998
4084, -8.160384018, 265.5117888, 17.5
4085, -12.24057603, 263.2676832, 26.25
4086, -4.080192009, 237.5518848, -6.249999998
4087, -8.160384018, 235.1037696, 17.5
4088, -12.24057603, 232.6556544, 26.25
4089, -4.080192009, 207.3478752, -6.249999998
4090, -8.160384018, 204.6957504, 17.5
4091, -12.24057603, 202.0436256, 26.25
4092, -4.080192009, 177.1438656, -6.249999998
4093, -8.160384018, 174.2877312, 17.5
4094, -12.24057603, 171.4315968, 26.25
4095, -4.080192009, 146.939856, -6.249999998
4096, -8.160384018, 143.879712, 17.5
4097, -12.24057603, 140.819568, 26.25
4098, -4.080192009, 116.7358464, -6.215122139
4099, -8.160384018, 113.4716928, 17.5
4100, -12.24057603, 110.2075392, 26.25
4101, -4.080192009, 86.53183679, -6.204214832
4102, -8.160384018, 83.06367358, 17.5
4103, -12.24057603, 79.59551038, 26.25
4104, -4.080192009, 56.32782719, -3.508324463
4105, -8.160384018, 52.65565438, 17.5
4106, -12.24057603, 48.98348158, 26.25
4107, -4.080192009, 26.12381759, 0.1386062399
4108, -8.160384018, 22.24763518, 17.5
4109, -12.24057603, 18.37145277, 26.25

*ELEMENT, TYPE=S4, ELSET=ELSET_PROP_1
1265, 1, 25, 1221, 220
1266, 220, 1221, 1222, 219
1267, 219, 1222, 1223, 218
1268, 218, 1223, 1224, 217
1269, 217, 1224, 1225, 216
1270, 216, 1225, 1226, 215
1271, 215, 1226, 1227, 214
1272, 214, 1227, 1228, 213
1273, 213, 1228, 1229, 212
1274, 212, 1229, 1230, 211
1275, 211, 1230, 1231, 210
1276, 210, 1231, 1232, 209
1277, 209, 1232, 1233, 208
1278, 208, 1233, 1234, 207
1279, 207, 1234, 1235, 206
1280, 206, 1235, 1236, 205
1281, 205, 1236, 1237, 204
1282, 204, 1237, 1238, 203
1283, 203, 1238, 1239, 202
1284, 202, 1239, 1240, 201
1285, 201, 1240, 1241, 200
1286, 200, 1241, 1242, 199
1287, 199, 1242, 1243, 198
1288, 198, 1243, 1244, 197
1289, 197, 1244, 1245, 196
1290, 196, 1245, 1246, 195
1291, 195, 1246, 1247, 194
1292, 194, 1247, 1248, 193
1293, 193, 1248, 1249, 192
1294, 192, 1249, 1250, 191
1295, 191, 1250, 1251, 190
1296, 190, 1251, 1252, 189
1297, 189, 1252, 1253, 188
1298, 188, 1253, 1254, 187
1299, 187, 1254, 1255, 186
1300, 186, 1255, 1256, 185
1301, 185, 1256, 1257, 184
1302, 184, 1257, 1258, 183
1303, 183, 1258, 1259, 182
1304, 182, 1259, 181, 4
1305, 25, 26, 1260, 1221
1306, 1221, 1260, 1261, 1222
1307, 1222, 1261, 1262, 1223
1308, 1223, 1262, 1263, 1224
1309, 1224, 1263, 1264, 1225
1310, 1225, 1264, 1265, 1226
1311, 1226, 1265, 1266, 1227
1312, 1227, 1266, 1267, 1228
1313, 1228, 1267, 1268, 1229
1314, 1229, 1268, 1269, 1230
1315, 1230, 1269, 1270, 1231
1316, 1231, 1270, 1271, 1232
1317, 1232, 1271, 1272, 1233
1318, 1233, 1272, 1273, 1234
1319, 1234, 1273, 1274, 1235
1320, 1235, 1274, 1275, 1236
1321, 1236, 1275, 1276, 1237
1322, 1237, 1276, 1277, 1238
1323, 1238, 1277, 1278, 1239
1324, 1239, 1278, 1279, 1240
1325, 1240, 1279, 1280, 1241
1326, 1241, 1280, 1281, 1242
1327, 1242, 1281, 1282, 1243
1328, 1243, 1282, 1283, 1244
1329, 1244, 1283, 1284, 1245
1330, 1245, 1284, 1285, 1246
1331, 1246, 1285, 1286, 1247
1332, 1247, 1286, 1287, 1248
1333, 1248, 1287, 1288, 1249
1334, 1249, 1288, 1289, 1250
1335, 1250, 1289, 1290, 1251
1336, 1251, 1290, 1291, 1252
1337, 1252, 1291, 1292, 1253
1338, 1253, 1292, 1293, 1254
1339, 1254, 1293, 1294, 1255
1340, 1255, 1294, 1295, 1256
1341, 1256, 1295, 1296, 1257
1342, 1257, 1296, 1297, 1258
1343, 1258, 1297, 1298, 1259
1344, 1259, 1298, 180, 181
1345, 26, 27, 1299, 1260
1346, 1260, 1299, 1300, 1261
1347, 1261, 1300, 1301, 1262
1348, 1262, 1301, 1302, 1263
1349, 1263, 1302, 1303, 1264
1350, 1264, 1303, 1304, 1265
1351, 1265, 1304, 1305, 1266
1352, 1266, 1305, 1306, 1267
1353, 1267, 1306, 1307, 1268
1354, 1268, 1307, 1308, 1269
1355, 1269, 1308, 1309, 1270
1356, 1270, 1309, 1310, 1271
1357, 1271, 1310, 1311, 1272
1358, 1272, 1311, 1312, 1273
1359, 1273, 1312, 1313, 1274
1360, 1274, 1313, 1314, 1275
1361, 1275, 1314, 1315, 1276
1362, 1276, 1315, 1316, 1277
1363, 1277, 1316, 1317, 1278
1364, 1278, 1317, 1318, 1279
1365, 1279, 1318, 1319, 1280
1366, 1280, 1319, 1320, 1281
1367, 1281, 1320, 1321, 1282
1368, 1282, 1321, 1322, 1283
1369, 1283, 1322, 1323, 1284
1370, 1284, 1323, 1324, 1285
1371, 1285, 1324, 1325, 1286
1372, 1286, 1325, 1326, 1287
1373, 1287, 1326, 1327, 1288
1374, 1288, 1327, 1328, 1289
1375, 1289, 1328, 1329, 1290
1376, 1290, 1329, 1330, 1291
1377, 1291, 1330, 1331, 1292
1378, 1292, 1331, 1332, 1293
1379, 1293, 1332, 1333, 1294
1380, 1294, 1333, 1334, 1295
1381, 1295, 1334, 1335, 1296
1382, 1296, 1335, 1336, 1297
1383, 1297, 1336, 1337, 1298
1384, 1298, 1337, 179, 180
1385, 27, 28, 1338, 1299
1386, 1299, 1338, 1339, 1300
1387, 1300, 1339, 1340, 1301
1388, 1301, 1340, 1341, 1302
1389, 1302, 1341, 1342, 1303
1390, 1303, 1342, 1343, 1304
1391, 1304, 1343, 1344, 1305
1392, 1305, 1344, 1345, 1306
1393, 1306, 1345, 1346, 1307
1394, 1307, 1346, 1347, 1308
1395, 1308, 1347, 1348, 1309
1396, 1309, 1348, 1349, 1310
1397, 1310, 1349, 1350, 1311
1398, 1311, 1350, 1351, 1312
1399, 1312, 1351, 1352, 1313
1400, 1313, 1352, 1353, 1314
1401, 1314, 1353, 1354, 1315
1402, 1315, 1354, 1355, 1316
1403, 1316, 1355, 1356, 1317
1404, 1317, 1356, 1357, 1318
1405, 1318, 1357, 1358, 1319
1406, 1319, 1358, 1359, 1320
1407, 1320, 1359, 1360, 1321
1408, 1321, 1360, 1361, 1322
1409, 1322, 1361, 1362, 1323
1410, 1323, 1362, 1363, 1324
1411, 1324, 1363, 1364, 1325
1412, 1325, 1364, 1365, 1326
1413, 1326, 1365, 1366, 1327
1414, 1327, 1366, 1367, 1328
1415, 1328, 1367, 1368, 1329
1416, 1329, 1368, 1369, 1330
1417, 1330, 1369, 1370, 1331
1418, 1331, 1370, 1371, 1332
1419, 1332, 1371, 1372, 1333
1420, 1333, 1372, 1373, 1334
1421, 1334, 1373, 1374, 1335
1422, 1335, 1374, 1375, 1336
1423, 1336, 1375, 1376, 1337
1424, 1337, 1376, 178, 179
1425, 28, 29, 1377, 1338
1426, 1338, 1377, 1378, 1339
1427, 1339, 1378, 1379, 1340
1428, 1340, 1379, 1380, 1341
1429, 1341, 1380, 1381, 1342
1430, 1342, 1381, 1382, 1343
1431, 1343, 1382, 1383, 1344
1432, 1344, 1383, 1384, 1345
1433, 1345, 1384, 1385, 1346
1434, 1346, 1385, 1386, 1347
1435, 1347, 1386, 1387, 1348
1436, 1348, 1387, 1388, 1349
1437, 1349, 1388, 1389, 1350
1438, 1350, 1389, 1390, 1351
1439, 1351, 1390, 1391, 1352
1440, 1352, 1391, 1392, 1353
1441, 1353, 1392, 1393, 1354
1442, 1354, 1393, 1394, 1355
1443, 1355, 1394, 1395, 1356
1444, 1356, 1395, 1396, 1357
1445, 1357, 1396, 1397, 1358
1446, 1358, 1397, 1398, 1359
1447, 1359, 1398, 1399, 1360
1448, 1360, 1399, 1400, 1361
1449, 1361, 1400, 1401, 1362
1450, 1362, 1401, 1402, 1363
1451, 1363, 1402, 1403, 1364
1452, 1364, 1403, 1404, 1365
1453, 1365, 1404, 1405, 1366
1454, 1366, 1405, 1406, 1367
1455, 1367, 1406, 1407, 1368
1456, 1368, 1407, 1408, 1369
1457, 1369, 1408, 1409, 1370
1458, 1370, 1409, 1410, 1371
1459, 1371, 1410, 1411, 1372
1460, 1372, 1411, 1412, 1373
1461, 1373, 1412, 1413, 1374
1462, 1374, 1413, 1414, 1375
1463, 1375, 1414, 1415, 1376
1464, 1376, 1415, 177, 178
1465, 29, 30, 1416, 1377
1466, 1377, 1416, 1417, 1378
1467, 1378, 1417, 1418, 1379
1468, 1379, 1418, 1419, 1380
1469, 1380, 1419, 1420, 1381
1470, 1381, 1420, 1421, 1382
1471, 1382, 1421, 1422, 1383
1472, 1383, 1422, 1423, 1384
1473, 1384, 1423, 1424, 1385
1474, 1385, 1424, 1425, 1386
1475, 1386, 1425, 1426, 1387
1476, 1387, 1426, 1427, 1388
1477, 1388, 1427, 1428, 1389
1478, 1389, 1428, 1429, 1390
1479, 1390, 1429, 1430, 1391
1480, 1391, 1430, 1431, 1392
1481, 1392, 1431, 1432, 1393
1482, 1393, 1432, 1433, 1394
1483, 1394, 1433, 1434, 1395
1484, 1395, 1434, 1435, 1396
1485, 1396, 1435, 1436, 1397
1486, 1397, 1436, 1437, 1398
1487, 1398, 1437, 1438, 1399
1488, 1399, 1438, 1439, 1400
1489, 1400, 1439, 1440, 1401
1490, 1401, 1440, 1441, 1402
1491, 1402, 1441, 1442, 1403
1492, 1403, 1442, 1443, 1404
1493, 1404, 1443, 1444, 1405
1494, 1405, 1444, 1445, 1406
1495, 1406, 1445, 1446, 1407
1496, 1407, 1446, 1447, 1408
1497, 1408, 1447, 1448, 1409
1498, 1409, 1448, 1449, 1410
1499, 1410, 1449, 1450, 1411
1500, 1411, 1450, 1451, 1412
1501, 1412, 1451, 1452, 1413
1502, 1413, 1452, 1453, 1414
1503, 1414, 1453, 1454, 1415
1504, 1415, 1454, 176, 177
1505, 30, 31, 1455, 1416
1506, 1416, 1455, 1456, 1417
1507, 1417, 1456, 1457, 1418
1508, 1418, 1457, 1458, 1419
1509, 1419, 1458, 1459, 1420
1510, 1420, 1459, 1460, 1421
1511, 1421, 1460, 1461, 1422
1512, 1422, 1461, 1462, 1423
1513, 1423, 1462, 1463, 1424
1514, 1424, 1463, 1464, 1425
1515, 1425, 1464, 1465, 1426
1516, 1426, 1465, 1466, 1427
1517, 1427, 1466, 1467, 1428
1518, 1428, 1467, 1468, 1429
1519, 1429, 1468, 1469, 1430
1520, 1430, 1469, 1470, 1431
1521, 1431, 1470, 1471, 1432
1522, 1432, 1471, 1472, 1433
1523, 1433, 1472, 1473, 1434
1524, 1434, 1473, 1474, 1435
1525, 1435, 1474, 1475, 1436
1526, 1436, 1475, 1476, 1437
1527, 1437, 1476, 1477, 1438
1528, 1438, 1477, 1478, 1439
1529, 1439, 1478, 1479, 1440
1530, 1440, 1479, 1480, 1441
1531, 1441, 1480, 1481, 1442
1532, 1442, 1481, 1482, 1443
1533, 1443, 1482, 1483, 1444
1534, 1444, 1483, 1484, 1445
1535, 1445, 1484, 1485, 1446
1536, 1446, 1485, 1486, 1447
1537, 1447, 1486, 1487, 1448
1538, 1448, 1487, 1488, 1449
1539, 1449, 1488, 1489, 1450
1540, 1450, 1489, 1490, 1451
1541, 1451, 1490, 1491, 1452
1542, 1452, 1491, 1492, 1453
1543, 1453, 1492, 1493, 1454
1544, 1454, 1493, 175, 176
1545, 31, 32, 1494, 1455
1546, 1455, 1494, 1495, 1456
1547, 1456, 1495, 1496, 1457
1548, 1457, 1496, 1497, 1458
1549, 1458, 1497, 1498, 1459
1550, 1459, 1498, 1499, 1460
1551, 1460, 1499, 1500, 1461
1552, 1461, 1500, 1501, 1462
1553, 1462, 1501, 1502, 1463
1554, 1463, 1502, 1503, 1464
1555, 1464, 1503, 1504, 1465
1556, 1465, 1504, 1505, 1466
1557, 1466, 1505, 1506, 1467
1558, 1467, 1506, 1507, 1468
1559, 1468, 1507, 1508, 1469
1560, 1469, 1508, 1509, 1470
1561, 1470, 1509, 1510, 1471
1562, 1471, 1510, 1511, 1472
1563, 1472, 1511, 1512, 1473
1564, 1473, 1512, 1513, 1474
1565, 1474, 1513, 1514, 1475
1566, 1475, 1514, 1515, 1476
1567, 1476, 1515, 1516, 1477
1568, 1477, 1516, 1517, 1478
1569, 1478, 1517, 1518, 1479
1570, 1479, 1518, 1519, 1480
1571, 1480, 1519, 1520, 1481
1572, 1481, 1520, 1521, 1482
1573, 1482, 1521, 1522, 1483
1574, 1483, 1522, 1523, 1484
1575, 1484, 1523, 1524, 1485
1576, 1485, 1524, 1525, 1486
1577, 1486, 1525, 1526, 1487
1578, 1487, 1526, 1527, 1488
1579, 1488, 1527, 1528, 1489
1580, 1489, 1528, 1529, 1490
1581, 1490, 1529, 1530, 1491
1582, 1491, 1530, 1531, 1492
1583, 1492, 1531, 1532, 1493
1584, 1493, 1532, 174, 175
1585, 32, 33, 1533, 1494
1586, 1494, 1533, 1534, 1495
1587, 1495, 1534, 1535, 1496
1588, 1496, 1535, 1536, 1497
1589, 1497, 1536, 1537, 1498
1590, 1498, 1537, 1538, 1499
1591, 1499, 1538, 1539, 1500
1592, 1500, 1539, 1540, 1501
1593, 1501, 1540, 1541, 1502
1594, 1502, 1541, 1542, 1503
1595, 1503, 1542, 1543, 1504
1596, 1504, 1543, 1544, 1505
1597, 1505, 1544, 1545, 1506
1598, 1506, 1545, 1546, 1507
1599, 1507, 1546, 1547, 1508
1600, 1508, 1547, 1548, 1509
1601, 1509, 1548, 1549, 1510
1602, 1510, 1549, 1550, 1511
1603, 1511, 1550, 1551, 1512
1604, 1512, 1551, 1552, 1513
1605, 1513, 1552, 1553, 1514
1606, 1514, 1553, 1554, 1515
1607, 1515, 1554, 1555, 1516
1608, 1516, 1555, 1556, 1517
1609, 1517, 1556, 1557, 1518
1610, 1518, 1557, 1558, 1519
1611, 1519, 1558, 1559, 1520
1612, 1520, 1559, 1560, 1521
1613, 1521, 1560, 1561, 1522
1614, 1522, 1561, 1562, 1523
1615, 1523, 1562, 1563, 1524
1616, 1524, 1563, 1564, 1525
1617, 1525, 1564, 1565, 1526
1618, 1526, 1565, 1566, 1527
1619, 1527, 1566, 1567, 1528
1620, 1528, 1567, 1568, 1529
1621, 1529, 1568, 1569, 1530
1622, 1530, 1569, 1570, 1531
1623, 1531, 1570, 1571, 1532
1624, 1532, 1571, 173, 174
1625, 33, 34, 1572, 1533
1626, 1533, 1572, 1573, 1534
1627, 1534, 1573, 1574, 1535
1628, 1535, 1574, 1575, 1536
1629, 1536, 1575, 1576, 1537
1630, 1537, 1576, 1577, 1538
1631, 1538, 1577, 1578, 1539
1632, 1539, 1578, 1579, 1540
1633, 1540, 1579, 1580, 1541
1634, 1541, 1580, 1581, 1542
1635, 1542, 1581, 1582, 1543
1636, 1543, 1582, 1583, 1544
1637, 1544, 1583, 1584, 1545
1638, 1545, 1584, 1585, 1546
1639, 1546, 1585, 1586, 1547
1640, 1547, 1586, 1587, 1548
1641, 1548, 1587, 1588, 1549
1642, 1549, 1588, 1589, 1550
1643, 1550, 1589, 1590, 1551
1644, 1551, 1590, 1591, 1552
1645, 1552, 1591, 1592, 1553
1646, 1553, 1592, 1593, 1554
1647, 1554, 1593, 1594, 1555
1648, 1555, 1594, 1595, 1556
1649, 1556, 1595, 1596, 1557
1650, 1557, 1596, 1597, 1558
1651, 1558, 1597, 1598, 1559
1652, 1559, 1598, 1599, 1560
1653, 1560, 1599, 1600, 1561
1654, 1561, 1600, 1601, 1562
1655, 1562, 1601, 1602, 1563
1656, 1563, 1602, 1603, 1564
1657, 1564, 1603, 1604, 1565
1658, 1565, 1604, 1605, 1566
1659, 1566, 1605, 1606, 1567
1660, 1567, 1606, 1607, 1568
1661, 1568, 1607, 1608, 1569
1662, 1569, 1608, 1609, 1570
1663, 1570, 1609, 1610, 1571
1664, 1571, 1610, 172, 173
1665, 34, 35, 1611, 1572
1666, 1572, 1611, 1612, 1573
1667, 1573, 1612, 1613, 1574
1668, 1574, 1613, 1614, 1575
1669, 1575, 1614, 1615, 1576
1670, 1576, 1615, 1616, 1577
1671, 1577, 1616, 1617, 1578
1672, 1578, 1617, 1618, 1579
1673, 1579, 1618, 1619, 1580
1674, 1580, 1619, 1620, 1581
1675, 1581, 1620, 1621, 1582
1676, 1582, 1621, 1622, 1583
1677, 1583, 1622, 1623, 1584
1678, 1584, 1623, 1624, 1585
1679, 1585, 1624, 1625, 1586
1680, 1586, 1625, 1626, 1587
1681, 1587, 1626, 1627, 1588
1682, 1588, 1627, 1628, 1589
1683, 1589, 1628, 1629, 1590
1684, 1590, 1629, 1630, 1591
1685, 1591, 1630, 1631, 1592
1686, 1592, 1631, 1632, 1593
1687, 1593, 1632, 1633, 1594
1688, 1594, 1633, 1634, 1595
1689, 1595, 1634, 1635, 1596
1690, 1596, 1635, 1636, 1597
1691, 1597, 1636, 1637, 1598
1692, 1598, 1637, 1638, 1599
1693, 1599, 1638, 1639, 1600
1694, 1600, 1639, 1640, 1601
1695, 1601, 1640, 1641, 1602
1696, 1602, 1641, 1642, 1603
1697, 1603, 1642, 1643, 1604
1698, 1604, 1643, 1644, 1605
1699, 1605, 1644, 1645, 1606
1700, 1606, 1645, 1646, 1607
1701, 1607, 1646, 1647, 1608
1702, 1608, 1647, 1648, 1609
1703, 1609, 1648, 1649, 1610
1704, 1610, 1649, 171, 172
1705, 35, 36, 1650, 1611
1706, 1611, 1650, 1651, 1612
1707, 1612, 1651, 1652, 1613
1708, 1613, 1652, 1653, 1614
1709, 1614, 1653, 1654, 1615
1710, 1615, 1654, 1655, 1616
1711, 1616, 1655, 1656, 1617
1712, 1617, 1656, 1657, 1618
1713, 1618, 1657, 1658, 1619
1714, 1619, 1658, 1659, 1620
1715, 1620, 1659, 1660, 1621
1716, 1621, 1660, 1661, 1622
1717, 1622, 1661, 1662, 1623
1718, 1623, 1662, 1663, 1624
1719, 1624, 1663, 1664, 1625
1720, 1625, 1664, 1665, 1626
1721, 1626, 1665, 1666, 1627
1722, 1627, 1666, 1667, 1628
1723, 1628, 1667, 1668, 1629
1724, 1629, 1668, 1669, 1630
1725, 1630, 1669, 1670, 1631
1726, 1631, 1670, 1671, 1632
1727, 1632, 1671, 1672, 1633
1728, 1633, 1672, 1673, 1634
1729, 1634, 1673, 1674, 1635
1730, 1635, 1674, 1675, 1636
1731, 1636, 1675, 1676, 1637
1732, 1637, 1676, 1677, 1638
1733, 1638, 1677, 1678, 1639
1734, 1639, 1678, 1679, 1640
1735, 1640, 1679, 1680, 1641
1736, 1641, 1680, 1681, 1642
1737, 1642, 1681, 1682, 1643
1738, 1643, 1682, 1683, 1644
1739, 1644, 1683, 1684, 1645
1740, 1645, 1684, 1685, 1646
1741, 1646, 1685, 1686, 1647
1742, 1647, 1686, 1687, 1648
1743, 1648, 1687, 1688, 1649
1744, 1649, 1688, 170, 171
1745, 36, 37, 1689, 1650
1746, 1650, 1689, 1690, 1651
1747, 1651, 1690, 1691, 1652
1748, 1652, 1691, 1692, 1653
1749, 1653, 1692, 1693, 1654
1750, 1654, 1693, 1694, 1655
1751, 1655, 1694, 1695, 1656
1752, 1656, 1695, 1696, 1657
1753, 1657, 1696, 1697, 1658
1754, 1658, 1697, 1698, 1659
1755, 1659, 1698, 1699, 1660
1756, 1660, 1699, 1700, 1661
1757, 1661, 1700, 1701, 1662
1758, 1662, 1701, 1702, 1663
1759, 1663, 1702, 1703, 1664
1760, 1664, 1703, 1704, 1665
1761, 1665, 1704, 1705, 1666
1762, 1666, 1705, 1706, 1667
1763, 1667, 1706, 1707, 1668
1764, 1668, 1707, 1708, 1669
1765, 1669, 1708, 1709, 1670
1766, 1670, 1709, 1710, 1671
1767, 1671, 1710, 1711, 1672
1768, 1672, 1711, 1712, 1673
1769, 1673, 1712, 1713, 1674
1770, 1674, 1713, 1714, 1675
1771, 1675, 1714, 1715, 1676
1772, 1676, 1715, 1716, 1677
1773, 1677, 1716, 1717, 1678
1774, 1678, 1717, 1718, 1679
1775, 1679, 1718, 1719, 1680
1776, 1680, 1719, 1720, 1681
1777, 1681, 1720, 1721, 1682
1778, 1682, 1721, 1722, 1683
1779, 1683, 1722, 1723, 1684
1780, 1684, 1723, 1724, 1685
1781, 1685, 1724, 1725, 1686
1782, 1686, 1725, 1726, 1687
1783, 1687, 1726, 1727, 1688
1784, 1688, 1727, 169, 170
1785, 37, 38, 1728, 1689
1786, 1689, 1728, 1729, 1690
1787, 1690, 1729, 1730, 1691
1788, 1691, 1730, 1731, 1692
1789, 1692, 1731, 1732, 1693
1790, 1693, 1732, 1733, 1694
1791, 1694, 1733, 1734, 1695
1792, 1695, 1734, 1735, 1696
1793, 1696, 1735, 1736, 1697
1794, 1697, 1736, 1737, 1698
1795, 1698, 1737, 1738, 1699
1796, 1699, 1738, 1739, 1700
1797, 1700, 1739, 1740, 1701
1798, 1701, 1740, 1741, 1702
1799, 1702, 1741, 1742, 1703
1800, 1703, 1742, 1743, 1704
1801, 1704, 1743, 1744, 1705
1802, 1705, 1744, 1745, 1706
1803, 1706, 1745, 1746, 1707
1804, 1707, 1746, 1747, 1708
1805, 1708, 1747, 1748, 1709
1806, 1709, 1748, 1749, 1710
1807, 1710, 1749, 1750, 1711
1808, 1711, 1750, 1751, 1712
1809, 1712, 1751, 1752, 1713
1810, 1713, 1752, 1753, 1714
1811, 1714, 1753, 1754, 1715
1812, 1715, 1754, 1755, 1716
1813, 1716, 1755, 1756, 1717
1814, 1717, 1756, 1757, 1718
1815, 1718, 1757, 1758, 1719
1816, 1719, 1758, 1759, 1720
1817, 1720, 1759, 1760, 1721
1818, 1721, 1760, 1761, 1722
1819, 1722, 1761, 1762, 1723
1820, 1723, 1762, 1763, 1724
1821, 1724, 1763, 1764, 1725
1822, 1725, 1764, 1765, 1726
1823, 1726, 1765, 1766, 1727
1824, 1727, 1766, 168, 169
1825, 38, 39, 1767, 1728
1826, 1728, 1767, 1768, 1729
1827, 1729, 1768, 1769, 1730
1828, 1730, 1769, 1770, 1731
1829, 1731, 1770, 1771, 1732
1830, 1732, 1771, 1772, 1733
1831, 1733, 1772, 1773, 1734
1832, 1734, 1773, 1774, 1735
1833, 1735, 1774, 1775, 1736
1834, 1736, 1775, 1776, 1737
1835, 1737, 1776, 1777, 1738
1836, 1738, 1777, 1778, 1739
1837, 1739, 1778, 1779, 1740
1838, 1740, 1779, 1780, 1741
1839, 1741, 1780, 1781, 1742
1840, 1742, 1781, 1782, 1743
1841, 1743, 1782, 1783, 1744
1842, 1744, 1783, 1784, 1745
1843, 1745, 1784, 1785, 1746
1844, 1746, 1785, 1786, 1747
1845, 1747, 1786, 1787, 1748
1846, 1748, 1787, 1788, 1749
1847, 1749, 1788, 1789, 1750
1848, 1750, 1789, 1790, 1751
1849, 1751, 1790, 1791, 1752
1850, 1752, 1791, 1792, 1753
1851, 1753, 1792, 1793, 1754
1852, 1754, 1793, 1794, 1755
1853, 1755, 1794, 1795, 1756
1854, 1756, 1795, 1796, 1757
1855, 1757, 1796, 1797, 1758
1856, 1758, 1797, 1798, 1759
1857, 1759, 1798, 1799, 1760
1858, 1760, 1799, 1800, 1761
1859, 1761, 1800, 1801, 1762
1860, 1762, 1801, 1802, 1763
1861, 1763, 1802, 1803, 1764
1862, 1764, 1803, 1804, 1765
1863, 1765, 1804, 1805, 1766
1864, 1766, 1805, 167, 168
1865, 39, 40, 1806, 1767
1866, 1767, 1806, 1807, 1768
1867, 1768, 1807, 1808, 1769
1868, 1769, 1808, 1809, 1770
1869, 1770, 1809, 1810, 1771
1870, 1771, 1810, 1811, 1772
1871, 1772, 1811, 1812, 1773
1872, 1773, 1812, 1813, 1774
1873, 1774, 1813, 1814, 1775
1874, 1775, 1814, 1815, 1776
1875, 1776, 1815, 1816, 1777
1876, 1777, 1816, 1817, 1778
1877, 1778, 1817, 1818, 1779
1878, 1779, 1818, 1819, 1780
1879, 1780, 1819, 1820, 1781
1880, 1781, 1820, 1821, 1782
1881, 1782, 1821, 1822, 1783
1882, 1783, 1822, 1823, 1784
1883, 1784, 1823, 1824, 1785
1884, 1785, 1824, 1825, 1786
1885, 1786, 1825, 1826, 1787
1886, 1787, 1826, 1827, 1788
1887, 1788, 1827, 1828, 1789
1888, 1789, 1828, 1829, 1790
1889, 1790, 1829, 1830, 1791
1890, 1791, 1830, 1831, 1792
1891, 1792, 1831, 1832, 1793
1892, 1793, 1832, 1833, 1794
1893, 1794, 1833, 1834, 1795
1894, 1795, 1834, 1835, 1796
1895, 1796, 1835, 1836, 1797
1896, 1797, 1836, 1837, 1798
1897, 1798, 1837, 1838, 1799
1898, 1799, 1838, 1839, 1800
1899, 1800, 1839, 1840, 1801
1900, 1801, 1840, 1841, 1802
1901, 1802, 1841, 1842, 1803
1902, 1803, 1842, 1843, 1804
1903, 1804, 1843, 1844, 1805
1904, 1805, 1844, 166, 167
1905, 40, 41, 1845, 1806
1906, 1806, 1845, 1846, 1807
1907, 1807, 1846, 1847, 1808
1908, 1808, 1847, 1848, 1809
1909, 1809, 1848, 1849, 1810
1910, 1810, 1849, 1850, 1811
1911, 1811, 1850, 1851, 1812
1912, 1812, 1851, 1852, 1813
1913, 1813, 1852, 1853, 1814
1914, 1814, 1853, 1854, 1815
1915, 1815, 1854, 1855, 1816
1916, 1816, 1855, 1856, 1817
1917, 1817, 1856, 1857, 1818
1918, 1818, 1857, 1858, 1819
1919, 1819, 1858, 1859, 1820
1920, 1820, 1859, 1860, 1821
1921, 1821, 1860, 1861, 1822
1922, 1822, 1861, 1862, 1823
1923, 1823, 1862, 1863, 1824
1924, 1824, 1863, 1864, 1825
1925, 1825, 1864, 1865, 1826
1926, 1826, 1865, 1866, 1827
1927, 1827, 1866, 1867, 1828
1928, 1828, 1867, 1868, 1829
1929, 1829, 1868, 1869, 1830
1930, 1830, 1869, 1870, 1831
1931, 1831, 1870, 1871, 1832
1932, 1832, 1871, 1872, 1833
1933, 1833, 1872, 1873, 1834
1934, 1834, 1873, 1874, 1835
1935, 1835, 1874, 1875, 1836
1936, 1836, 1875, 1876, 1837
1937, 1837, 1876, 1877, 1838
1938, 1838, 1877, 1878, 1839
1939, 1839, 1878, 1879, 1840
1940, 1840, 1879, 1880, 1841
1941, 1841, 1880, 1881, 1842
1942, 1842, 1881, 1882, 1843
1943, 1843, 1882, 1883, 1844
1944, 1844, 1883, 165, 166
1945, 41, 42, 1884, 1845
1946, 1845, 1884, 1885, 1846
1947, 1846, 1885, 1886, 1847
1948, 1847, 1886, 1887, 1848
1949, 1848, 1887, 1888, 1849
1950, 1849, 1888, 1889, 1850
1951, 1850, 1889, 1890, 1851
1952, 1851, 1890, 1891, 1852
1953, 1852, 1891, 1892, 1853
1954, 1853, 1892, 1893, 1854
1955, 1854, 1893, 1894, 1855
1956, 1855, 1894, 1895, 1856
1957, 1856, 1895, 1896, 1857
1958, 1857, 1896, 1897, 1858
1959, 1858, 1897, 1898, 1859
1960, 1859, 1898, 1899, 1860
1961, 1860, 1899, 1900, 1861
1962, 1861, 1900, 1901, 1862
1963, 1862, 1901, 1902, 1863
1964, 1863, 1902, 1903, 1864
1965, 1864, 1903, 1904, 1865
1966, 1865, 1904, 1905, 1866
1967, 1866, 1905, 1906, 1867
1968, 1867, 1906, 1907, 1868
1969, 1868, 1907, 1908, 1869
1970, 1869, 1908, 1909, 1870
1971, 1870, 1909, 1910, 1871
1972, 1871, 1910, 1911, 1872
1973, 1872, 1911, 1912, 1873
1974, 1873, 1912, 1913, 1874
1975, 1874, 1913, 1914, 1875
1976, 1875, 1914, 1915, 1876
1977, 1876, 1915, 1916, 1877
1978, 1877, 1916, 1917, 1878
1979, 1878, 1917, 1918, 1879
1980, 1879, 1918, 1919, 1880
1981, 1880, 1919, 1920, 1881
1982, 1881, 1920, 1921, 1882
1983, 1882, 1921, 1922, 1883
1984, 1883, 1922, 164, 165
1985, 42, 43, 1923, 1884
1986, 1884, 1923, 1924, 1885
1987, 1885, 1924, 1925, 1886
1988, 1886, 1925, 1926, 1887
1989, 1887, 1926, 1927, 1888
1990, 1888, 1927, 1928, 1889
1991, 1889, 1928, 1929, 1890
1992, 1890, 1929, 1930, 1891
1993, 1891, 1930, 1931, 1892
1994, 1892, 1931, 1932, 1893
1995, 1893, 1932, 1933, 1894
1996, 1894, 1933, 1934, 1895
1997, 1895, 1934, 1935, 1896
1998, 1896, 1935, 1936, 1897
1999, 1897, 1936, 1937, 1898
2000, 1898, 1937, 1938, 1899
2001, 1899, 1938, 1939, 1900
2002, 1900, 1939, 1940, 1901
2003, 1901, 1940, 1941, 1902
2004, 1902, 1941, 1942, 1903
2005, 1903, 1942, 1943, 1904
2006, 1904, 1943, 1944, 1905
2007, 1905, 1944, 1945, 1906
2008, 1906, 1945, 1946, 1907
2009, 1907, 1946, 1947, 1908
2010, 1908, 1947, 1948, 1909
2011, 1909, 1948, 1949, 1910
2012, 1910, 1949, 1950, 1911
2013, 1911, 1950, 1951, 1912
2014, 1912, 1951, 1952, 1913
2015, 1913, 1952, 1953, 1914
2016, 1914, 1953, 1954, 1915
2017, 1915, 1954, 1955, 1916
2018, 1916, 1955, 1956, 1917
2019, 1917, 1956, 1957, 1918
2020, 1918, 1957, 1958, 1919
2021, 1919, 1958, 1959, 1920
2022, 1920, 1959, 1960, 1921
2023, 1921, 1960, 1961, 1922
2024, 1922, 1961, 163, 164
2025, 43, 44, 1962, 1923
2026, 1923, 1962, 1963, 1924
2027, 1924, 1963, 1964, 1925
2028, 1925, 1964, 1965, 1926
2029, 1926, 1965, 1966, 1927
2030, 1927, 1966, 1967, 1928
2031, 1928, 1967, 1968, 1929
2032, 1929, 1968, 1969, 1930
2033, 1930, 1969, 1970, 1931
2034, 1931, 1970, 1971, 1932
2035, 1932, 1971, 1972, 1933
2036, 1933, 1972, 1973, 1934
2037, 1934, 1973, 1974, 1935
2038, 1935, 1974, 1975, 1936
2039, 1936, 1975, 1976, 1937
2040, 1937, 1976, 1977, 1938
2041, 1938, 1977, 1978, 1939
2042, 1939, 1978, 1979, 1940
2043, 1940, 1979, 1980, 1941
2044, 1941, 1980, 1981, 1942
2045, 1942, 1981, 1982, 1943
2046, 1943, 1982, 1983, 1944
2047, 1944, 1983, 1984, 1945
2048, 1945, 1984, 1985, 1946
2049, 1946, 1985, 1986, 1947
2050, 1947, 1986, 1987, 1948
2051, 1948, 1987, 1988, 1949
2052, 1949, 1988, 1989, 1950
2053, 1950, 1989, 1990, 1951
2054, 1951, 1990, 1991, 1952
2055, 1952, 1991, 1992, 1953
2056, 1953, 1992, 1993, 1954
2057, 1954, 1993, 1994, 1955
2058, 1955, 1994, 1995, 1956
2059, 1956, 1995, 1996, 1957
2060, 1957, 1996, 1997, 1958
2061, 1958, 1997, 1998, 1959
2062, 1959, 1998, 1999, 1960
2063, 1960, 1999, 2000, 1961
2064, 1961, 2000, 162, 163
2065, 44, 45, 2001, 1962
2066, 1962, 2001, 2002, 1963
2067, 1963, 2002, 2003, 1964
2068, 1964, 2003, 2004, 1965
2069, 1965, 2004, 2005, 1966
2070, 1966, 2005, 2006, 1967
2071, 1967, 2006, 2007, 1968
2072, 1968, 2007, 2008, 1969
2073, 1969, 2008, 2009, 1970
2074, 1970, 2009, 2010, 1971
2075, 1971, 2010, 2011, 1972
2076, 1972, 2011, 2012, 1973
2077, 1973, 2012, 2013, 1974
2078, 1974, 2013, 2014, 1975
2079, 1975, 2014, 2015, 1976
2080, 1976, 2015, 2016, 1977
2081, 1977, 2016, 2017, 1978
2082, 1978, 2017, 2018, 1979
2083, 1979, 2018, 2019, 1980
2084, 1980, 2019, 2020, 1981
2085, 1981, 2020, 2021, 1982
2086, 1982, 2021, 2022, 1983
2087, 1983, 2022, 2023, 1984
2088, 1984, 2023, 2024, 1985
2089, 1985, 2024, 2025, 1986
2090, 1986, 2025, 2026, 1987
2091, 1987, 2026, 2027, 1988
2092, 1988, 2027, 2028, 1989
2093, 1989, 2028, 2029, 1990
2094, 1990, 2029, 2030, 1991
2095, 1991, 2030, 2031, 1992
2096, 1992, 2031, 2032, 1993
2097, 1993, 2032, 2033, 1994
2098, 1994, 2033, 2034, 1995
2099, 1995, 2034, 2035, 1996
2100, 1996, 2035, 2036, 1997
2101, 1997, 2036, 2037, 1998
2102, 1998, 2037, 2038, 1999
2103, 1999, 2038, 2039, 2000
2104, 2000, 2039, 161, 162
2105, 45, 46, 2040, 2001
2106, 2001, 2040, 2041, 2002
2107, 2002, 2041, 2042, 2003
2108, 2003, 2042, 2043, 2004
2109, 2004, 2043, 2044, 2005
2110, 2005, 2044, 2045, 2006
2111, 2006, 2045, 2046, 2007
2112, 2007, 2046, 2047, 2008
2113, 2008, 2047, 2048, 2009
2114, 2009, 2048, 2049, 2010
2115, 2010, 2049, 2050, 2011
2116, 2011, 2050, 2051, 2012
2117, 2012, 2051, 2052, 2013
2118, 2013, 2052, 2053, 2014
2119, 2014, 2053, 2054, 2015
2120, 2015, 2054, 2055, 2016
2121, 2016, 2055, 2056, 2017
2122, 2017, 2056, 2057, 2018
2123, 2018, 2057, 2058, 2019
2124, 2019, 2058, 2059, 2020
2125, 2020, 2059, 2060, 2021
2126, 2021, 2060, 2061, 2022
2127, 2022, 2061, 2062, 2023
2128, 2023, 2062, 2063, 2024
2129, 2024, 2063, 2064, 2025
2130, 2025, 2064, 2065, 2026
2131, 2026, 2065, 2066, 2027
2132, 2027, 2066, 2067, 2028
2133, 2028, 2067, 2068, 2029
2134, 2029, 2068, 2069, 2030
2135, 2030, 2069, 2070, 2031
2136, 2031, 2070, 2071, 2032
2137, 2032, 2071, 2072, 2033
2138, 2033, 2072, 2073, 2034
2139, 2034, 2073, 2074, 2035
2140, 2035, 2074, 2075, 2036
2141, 2036, 2075, 2076, 2037
2142, 2037, 2076, 2077, 2038
2143, 2038, 2077, 2078, 2039
2144, 2039, 2078, 160, 161
2145, 46, 47, 2079, 2040
2146, 2040, 2079, 2080, 2041
2147, 2041, 2080, 2081, 2042
2148, 2042, 2081, 2082, 2043
2149, 2043, 2082, 2083, 2044
2150, 2044, 2083, 2084, 2045
2151, 2045, 2084, 2085, 2046
2152, 2046, 2085, 2086, 2047
2153, 2047, 2086, 2087, 2048
2154, 2048, 2087, 2088, 2049
2155, 2049, 2088, 2089, 2050
2156, 2050, 2089, 2090, 2051
2157, 2051, 2090, 2091, 2052
2158, 2052, 2091, 2092, 2053
2159, 2053, 2092, 2093, 2054
2160, 2054, 2093, 2094, 2055
2161, 2055, 2094, 2095, 2056
2162, 2056, 2095, 2096, 2057
2163, 2057, 2096, 2097, 2058
2164, 2058, 2097, 2098, 2059
2165, 2059, 2098, 2099, 2060
2166, 2060, 2099, 2100, 2061
2167, 2061, 2100, 2101, 2062
2168, 2062, 2101, 2102, 2063
2169, 2063, 2102, 2103, 2064
2170, 2064, 2103, 2104, 2065
2171, 2065, 2104, 2105, 2066
2172, 2066, 2105, 2106, 2067
2173, 2067, 2106, 2107, 2068
2174, 2068, 2107, 2108, 2069
2175, 2069, 2108, 2109, 2070
2176, 2070, 2109, 2110, 2071
2177, 2071, 2110, 2111, 2072
2178, 2072, 2111, 2112, 2073
2179, 2073, 2112, 2113, 2074
2180, 2074, 2113, 2114, 2075
2181, 2075, 2114, 2115, 2076
2182, 2076, 2115, 2116, 2077
2183, 2077, 2116, 2117, 2078
2184, 2078, 2117, 159, 160
2185, 47, 48, 2118, 2079
2186, 2079, 2118, 2119, 2080
2187, 2080, 2119, 2120, 2081
2188, 2081, 2120, 2121, 2082
2189, 2082, 2121, 2122, 2083
2190, 2083, 2122, 2123, 2084
2191, 2084, 2123, 2124, 2085
2192, 2085, 2124, 2125, 2086
2193, 2086, 2125, 2126, 2087
2194, 2087, 2126, 2127, 2088
2195, 2088, 2127, 2128, 2089
2196, 2089, 2128, 2129, 2090
2197, 2090, 2129, 2130, 2091
2198, 2091, 2130, 2131, 2092
2199, 2092, 2131, 2132, 2093
2200, 2093, 2132, 2133, 2094
2201, 2094, 2133, 2134, 2095
2202, 2095, 2134, 2135, 2096
2203, 2096, 2135, 2136, 2097
2204, 2097, 2136, 2137, 2098
2205, 2098, 2137, 2138, 2099
2206, 2099, 2138, 2139, 2100
2207, 2100, 2139, 2140, 2101
2208, 2101, 2140, 2141, 2102
2209, 2102, 2141, 2142, 2103
2210, 2103, 2142, 2143, 2104
2211, 2104, 2143, 2144, 2105
2212, 2105, 2144, 2145, 2106
2213, 2106, 2145, 2146, 2107
2214, 2107, 2146, 2147, 2108
2215, 2108, 2147, 2148, 2109
2216, 2109, 2148, 2149, 2110
2217, 2110, 2149, 2150, 2111
2218, 2111, 2150, 2151, 2112
2219, 2112, 2151, 2152, 2113
2220, 2113, 2152, 2153, 2114
2221, 2114, 2153, 2154, 2115
2222, 2115, 2154, 2155, 2116
2223, 2116, 2155, 2156, 2117
2224, 2117, 2156, 158, 159
2225, 48, 49, 2157, 2118
2226, 2118, 2157, 2158, 2119
2227, 2119, 2158, 2159, 2120
2228, 2120, 2159, 2160, 2121
2229, 2121, 2160, 2161, 2122
2230, 2122, 2161, 2162, 2123
2231, 2123, 2162, 2163, 2124
2232, 2124, 2163, 2164, 2125
2233, 2125, 2164, 2165, 2126
2234, 2126, 2165, 2166, 2127
2235, 2127, 2166, 2167, 2128
2236, 2128, 2167, 2168, 2129
2237, 2129, 2168, 2169, 2130
2238, 2130, 2169, 2170, 2131
2239, 2131, 2170, 2171, 2132
2240, 2132, 2171, 2172, 2133
2241, 2133, 2172, 2173, 2134
2242, 2134, 2173, 2174, 2135
2243, 2135, 2174, 2175, 2136
2244, 2136, 2175, 2176, 2137
2245, 2137, 2176, 2177, 2138
2246, 2138, 2177, 2178, 2139
2247, 2139, 2178, 2179, 2140
2248, 2140, 2179, 2180, 2141
2249, 2141, 2180, 2181, 2142
2250, 2142, 2181, 2182, 2143
2251, 2143, 2182, 2183, 2144
2252, 2144, 2183, 2184, 2145
2253, 2145, 2184, 2185, 2146
2254, 2146, 2185, 2186, 2147
2255, 2147, 2186, 2187, 2148
2256, 2148, 2187, 2188, 2149
2257, 2149, 2188, 2189, 2150
2258, 2150, 2189, 2190, 2151
2259, 2151, 2190, 2191, 2152
2260, 2152, 2191, 2192, 2153
2261, 2153, 2192, 2193, 2154
2262, 2154, 2193, 2194, 2155
2263, 2155, 2194, 2195, 2156
2264, 2156, 2195, 157, 158
2265, 49, 50, 2196, 2157
2266, 2157, 2196, 2197, 2158
2267, 2158, 2197, 2198, 2159
2268, 2159, 2198, 2199, 2160
2269, 2160, 2199, 2200, 2161
2270, 2161, 2200, 2201, 2162
2271, 2162, 2201, 2202, 2163
2272, 2163, 2202, 2203, 2164
2273, 2164, 2203, 2204, 2165
2274, 2165, 2204, 2205, 2166
2275, 2166, 2205, 2206, 2167
2276, 2167, 2206, 2207, 2168
2277, 2168, 2207, 2208, 2169
2278, 2169, 2208, 2209, 2170
2279, 2170, 2209, 2210, 2171
2280, 2171, 2210, 2211, 2172
2281, 2172, 2211, 2212, 2173
2282, 2173, 2212, 2213, 2174
2283, 2174, 2213, 2214, 2175
2284, 2175, 2214, 2215, 2176
2285, 2176, 2215, 2216, 2177
2286, 2177, 2216, 2217, 2178
2287, 2178, 2217, 2218, 2179
2288, 2179, 2218, 2219, 2180
2289, 2180, 2219, 2220, 2181
2290, 2181, 2220, 2221, 2182
2291, 2182, 2221, 2222, 2183
2292, 2183, 2222, 2223, 2184
2293, 2184, 2223, 2224, 2185
2294, 2185, 2224, 2225, 2186
2295, 2186, 2225, 2226, 2187
2296, 2187, 2226, 2227, 2188
2297, 2188, 2227, 2228, 2189
2298, 2189, 2228, 2229, 2190
2299, 2190, 2229, 2230, 2191
2300, 2191, 2230, 2231, 2192
2301, 2192, 2231, 2232, 2193
2302, 2193, 2232, 2233, 2194
2303, 2194, 2233, 2234, 2195
2304, 2195, 2234, 156, 157
2305, 50, 51, 2235, 2196
2306, 2196, 2235, 2236, 2197
2307, 2197, 2236, 2237, 2198
2308, 2198, 2237, 2238, 2199
2309, 2199, 2238, 2239, 2200
2310, 2200, 2239, 2240, 2201
2311, 2201, 2240, 2241, 2202
2312, 2202, 2241, 2242, 2203
2313, 2203, 2242, 2243, 2204
2314, 2204, 2243, 2244, 2205
2315, 2205, 2244, 2245, 2206
2316, 2206, 2245, 2246, 2207
2317, 2207, 2246, 2247, 2208
2318, 2208, 2247, 2248, 2209
2319, 2209, 2248, 2249, 2210
2320, 2210, 2249, 2250, 2211
2321, 2211, 2250, 2251, 2212
2322, 2212, 2251, 2252, 2213
2323, 2213, 2252, 2253, 2214
2324, 2214, 2253, 2254, 2215
2325, 2215, 2254, 2255, 2216
2326, 2216, 2255, 2256, 2217
2327, 2217, 2256, 2257, 2218
2328, 2218, 2257, 2258, 2219
2329, 2219, 2258, 2259, 2220
2330, 2220, 2259, 2260, 2221
2331, 2221, 2260, 2261, 2222
2332, 2222, 2261, 2262, 2223
2333, 2223, 2262, 2263, 2224
2334, 2224, 2263, 2264, 2225
2335, 2225, 2264, 2265, 2226
2336, 2226, 2265, 2266, 2227
2337, 2227, 2266, 2267, 2228
2338, 2228, 2267, 2268, 2229
2339, 2229, 2268, 2269, 2230
2340, 2230, 2269, 2270, 2231
2341, 2231, 2270, 2271, 2232
2342, 2232, 2271, 2272, 2233
2343, 2233, 2272, 2273, 2234
2344, 2234, 2273, 155, 156
2345, 51, 52, 2274, 2235
2346, 2235, 2274, 2275, 2236
2347, 2236, 2275, 2276, 2237
2348, 2237, 2276, 2277, 2238
2349, 2238, 2277, 2278, 2239
2350, 2239, 2278, 2279, 2240
2351, 2240, 2279, 2280, 2241
2352, 2241, 2280, 2281, 2242
2353, 2242, 2281, 2282, 2243
2354, 2243, 2282, 2283, 2244
2355, 2244, 2283, 2284, 2245
2356, 2245, 2284, 2285, 2246
2357, 2246, 2285, 2286, 2247
2358, 2247, 2286, 2287, 2248
2359, 2248, 2287, 2288, 2249
2360, 2249, 2288, 2289, 2250
2361, 2250, 2289, 2290, 2251
2362, 2251, 2290, 2291, 2252
2363, 2252, 2291, 2292, 2253
2364, 2253, 2292, 2293, 2254
2365, 2254, 2293, 2294, 2255
2366, 2255, 2294, 2295, 2256
2367, 2256, 2295, 2296, 2257
2368, 2257, 2296, 2297, 2258
2369, 2258, 2297, 2298, 2259
2370, 2259, 2298, 2299, 2260
2371, 2260, 2299, 2300, 2261
2372, 2261, 2300, 2301, 2262
2373, 2262, 2301, 2302, 2263
2374, 2263, 2302, 2303, 2264
2375, 2264, 2303, 2304, 2265
2376, 2265, 2304, 2305, 2266
2377, 2266, 2305, 2306, 2267
2378, 2267, 2306, 2307, 2268
2379, 2268, 2307, 2308, 2269
2380, 2269, 2308, 2309, 2270
2381, 2270, 2309, 2310, 2271
2382, 2271, 2310, 2311, 2272
2383, 2272, 2311, 2312, 2273
2384, 2273, 2312, 154, 155
2385, 52, 53, 2313, 2274
2386, 2274, 2313, 2314, 2275
2387, 2275, 2314, 2315, 2276
2388, 2276, 2315, 2316, 2277
2389, 2277, 2316, 2317, 2278
2390, 2278, 2317, 2318, 2279
2391, 2279, 2318, 2319, 2280
2392, 2280, 2319, 2320, 2281
2393, 2281, 2320, 2321, 2282
2394, 2282, 2321, 2322, 2283
2395, 2283, 2322, 2323, 2284
2396, 2284, 2323, 2324, 2285
2397, 2285, 2324, 2325, 2286
2398, 2286, 2325, 2326, 2287
2399, 2287, 2326, 2327, 2288
2400, 2288, 2327, 2328, 2289
2401, 2289, 2328, 2329, 2290
2402, 2290, 2329, 2330, 2291
2403, 2291, 2330, 2331, 2292
2404, 2292, 2331, 2332, 2293
2405, 2293, 2332, 2333, 2294
2406, 2294, 2333, 2334, 2295
2407, 2295, 2334, 2335, 2296
2408, 2296, 2335, 2336, 2297
2409, 2297, 2336, 2337, 2298
2410, 2298, 2337, 2338, 2299
2411, 2299, 2338, 2339, 2300
2412, 2300, 2339, 2340, 2301
2413, 2301, 2340, 2341, 2302
2414, 2302, 2341, 2342, 2303
2415, 2303, 2342, 2343, 2304
2416, 2304, 2343, 2344, 2305
2417, 2305, 2344, 2345, 2306
2418, 2306, 2345, 2346, 2307
2419, 2307, 2346, 2347, 2308
2420, 2308, 2347, 2348, 2309
2421, 2309, 2348, 2349, 2310
2422, 2310, 2349, 2350, 2311
2423, 2311, 2350, 2351, 2312
2424, 2312, 2351, 153, 154
2425, 53, 54, 2352, 2313
2426, 2313, 2352, 2353, 2314
2427, 2314, 2353, 2354, 2315
2428, 2315, 2354, 2355, 2316
2429, 2316, 2355, 2356, 2317
2430, 2317, 2356, 2357, 2318
2431, 2318, 2357, 2358, 2319
2432, 2319, 2358, 2359, 2320
2433, 2320, 2359, 2360, 2321
2434, 2321, 2360, 2361, 2322
2435, 2322, 2361, 2362, 2323
2436, 2323, 2362, 2363, 2324
2437, 2324, 2363, 2364, 2325
2438, 2325, 2364, 2365, 2326
2439, 2326, 2365, 2366, 2327
2440, 2327, 2366, 2367, 2328
2441, 2328, 2367, 2368, 2329
2442, 2329, 2368, 2369, 2330
2443, 2330, 2369, 2370, 2331
2444, 2331, 2370, 2371, 2332
2445, 2332, 2371, 2372, 2333
2446, 2333, 2372, 2373, 2334
2447, 2334, 2373, 2374, 2335
2448, 2335, 2374, 2375, 2336
2449, 2336, 2375, 2376, 2337
2450, 2337, 2376, 2377, 2338
2451, 2338, 2377, 2378, 2339
2452, 2339, 2378, 2379, 2340
2453, 2340, 2379, 2380, 2341
2454, 2341, 2380, 2381, 2342
2455, 2342, 2381, 2382, 2343
2456, 2343, 2382, 2383, 2344
2457, 2344, 2383, 2384, 2345
2458, 2345, 2384, 2385, 2346
2459, 2346, 2385, 2386, 2347
2460, 2347, 2386, 2387, 2348
2461, 2348, 2387, 2388, 2349
2462, 2349, 2388, 2389, 2350
2463, 2350, 2389, 2390, 2351
2464, 2351, 2390, 152, 153
2465, 54, 55, 2391, 2352
2466, 2352, 2391, 2392, 2353
2467, 2353, 2392, 2393, 2354
2468, 2354, 2393, 2394, 2355
2469, 2355, 2394, 2395, 2356
2470, 2356, 2395, 2396, 2357
2471, 2357, 2396, 2397, 2358
2472, 2358, 2397, 2398, 2359
2473, 2359, 2398, 2399, 2360
2474, 2360, 2399, 2400, 2361
2475, 2361, 2400, 2401, 2362
2476, 2362, 2401, 2402, 2363
2477, 2363, 2402, 2403, 2364
2478, 2364, 2403, 2404, 2365
2479, 2365, 2404, 2405, 2366
2480, 2366, 2405, 2406, 2367
2481, 2367, 2406, 2407, 2368
2482, 2368, 2407, 2408, 2369
2483, 2369, 2408, 2409, 2370
2484, 2370, 2409, 2410, 2371
2485, 2371, 2410, 2411, 2372
2486, 2372, 2411, 2412, 2373
2487, 2373, 2412, 2413, 2374
2488, 2374, 2413, 2414, 2375
2489, 2375, 2414, 2415, 2376
2490, 2376, 2415, 2416, 2377
2491, 2377, 2416, 2417, 2378
2492, 2378, 2417, 2418, 2379
2493, 2379, 2418, 2419, 2380
2494, 2380, 2419, 2420, 2381
2495, 2381, 2420, 2421, 2382
2496, 2382, 2421, 2422, 2383
2497, 2383, 2422, 2423, 2384
2498, 2384, 2423, 2424, 2385
2499, 2385, 2424, 2425, 2386
2500, 2386, 2425, 2426, 2387
2501, 2387, 2426, 2427, 2388
2502, 2388, 2427, 2428, 2389
2503, 2389, 2428, 2429, 2390
2504, 2390, 2429, 151, 152
2505, 55, 56, 2430, 2391
2506, 2391, 2430, 2431, 2392
2507, 2392, 2431, 2432, 2393
2508, 2393, 2432, 2433, 2394
2509, 2394, 2433, 2434, 2395
2510, 2395, 2434, 2435, 2396
2511, 2396, 2435, 2436, 2397
2512, 2397, 2436, 2437, 2398
2513, 2398, 2437, 2438, 2399
2514, 2399, 2438, 2439, 2400
2515, 2400, 2439, 2440, 2401
2516, 2401, 2440, 2441, 2402
2517, 2402, 2441, 2442, 2403
2518, 2403, 2442, 2443, 2404
2519, 2404, 2443, 2444, 2405
2520, 2405, 2444, 2445, 2406
2521, 2406, 2445, 2446, 2407
2522, 2407, 2446, 2447, 2408
2523, 2408, 2447, 2448, 2409
2524, 2409, 2448, 2449, 2410
2525, 2410, 2449, 2450, 2411
2526, 2411, 2450, 2451, 2412
2527, 2412, 2451, 2452, 2413
2528, 2413, 2452, 2453, 2414
2529, 2414, 2453, 2454, 2415
2530, 2415, 2454, 2455, 2416
2531, 2416, 2455, 2456, 2417
2532, 2417, 2456, 2457, 2418
2533, 2418, 2457, 2458, 2419
2534, 2419, 2458, 2459, 2420
2535, 2420, 2459, 2460, 2421
2536, 2421, 2460, 2461, 2422
2537, 2422, 2461, 2462, 2423
2538, 2423, 2462, 2463, 2424
2539, 2424, 2463, 2464, 2425
2540, 2425, 2464, 2465, 2426
2541, 2426, 2465, 2466, 2427
2542, 2427, 2466, 2467, 2428
2543, 2428, 2467, 2468, 2429
2544, 2429, 2468, 150, 151
2545, 56, 57, 2469, 2430
2546, 2430, 2469, 2470, 2431
2547, 2431, 2470, 2471, 2432
2548, 2432, 2471, 2472, 2433
2549, 2433, 2472, 2473, 2434
2550, 2434, 2473, 2474, 2435
2551, 2435, 2474, 2475, 2436
2552, 2436, 2475, 2476, 2437
2553, 2437, 2476, 2477, 2438
2554, 2438, 2477, 2478, 2439
2555, 2439, 2478, 2479, 2440
2556, 2440, 2479, 2480, 2441
2557, 2441, 2480, 2481, 2442
2558, 2442, 2481, 2482, 2443
2559, 2443, 2482, 2483, 2444
2560, 2444, 2483, 2484, 2445
2561, 2445, 2484, 2485, 2446
2562, 2446, 2485, 2486, 2447
2563, 2447, 2486, 2487, 2448
2564, 2448, 2487, 2488, 2449
2565, 2449, 2488, 2489, 2450
2566, 2450, 2489, 2490, 2451
2567, 2451, 2490, 2491, 2452
2568, 2452, 2491, 2492, 2453
2569, 2453, 2492, 2493, 2454
2570, 2454, 2493, 2494, 2455
2571, 2455, 2494, 2495, 2456
2572, 2456, 2495, 2496, 2457
2573, 2457, 2496, 2497, 2458
2574, 2458, 2497, 2498, 2459
2575, 2459, 2498, 2499, 2460
2576, 2460, 2499, 2500, 2461
2577, 2461, 2500, 2501, 2462
2578, 2462, 2501, 2502, 2463
2579, 2463, 2502, 2503, 2464
2580, 2464, 2503, 2504, 2465
2581, 2465, 2504, 2505, 2466
2582, 2466, 2505, 2506, 2467
2583, 2467, 2506, 2507, 2468
2584, 2468, 2507, 149, 150
2585, 57, 58, 2508, 2469
2586, 2469, 2508, 2509, 2470
2587, 2470, 2509, 2510, 2471
2588, 2471, 2510, 2511, 2472
2589, 2472, 2511, 2512, 2473
2590, 2473, 2512, 2513, 2474
2591, 2474, 2513, 2514, 2475
2592, 2475, 2514, 2515, 2476
2593, 2476, 2515, 2516, 2477
2594, 2477, 2516, 2517, 2478
2595, 2478, 2517, 2518, 2479
2596, 2479, 2518, 2519, 2480
2597, 2480, 2519, 2520, 2481
2598, 2481, 2520, 2521, 2482
2599, 2482, 2521, 2522, 2483
2600, 2483, 2522, 2523, 2484
2601, 2484, 2523, 2524, 2485
2602, 2485, 2524, 2525, 2486
2603, 2486, 2525, 2526, 2487
2604, 2487, 2526, 2527, 2488
2605, 2488, 2527, 2528, 2489
2606, 2489, 2528, 2529, 2490
2607, 2490, 2529, 2530, 2491
2608, 2491, 2530, 2531, 2492
2609, 2492, 2531, 2532, 2493
2610, 2493, 2532, 2533, 2494
2611, 2494, 2533, 2534, 2495
2612, 2495, 2534, 2535, 2496
2613, 2496, 2535, 2536, 2497
2614, 2497, 2536, 2537, 2498
2615, 2498, 2537, 2538, 2499
2616, 2499, 2538, 2539, 2500
2617, 2500, 2539, 2540, 2501
2618, 2501, 2540, 2541, 2502
2619, 2502, 2541, 2542, 2503
2620, 2503, 2542, 2543, 2504
2621, 2504, 2543, 2544, 2505
2622, 2505, 2544, 2545, 2506
2623, 2506, 2545, 2546, 2507
2624, 2507, 2546, 148, 149
2625, 58, 59, 2547, 2508
2626, 2508, 2547, 2548, 2509
2627, 2509, 2548, 2549, 2510
2628, 2510, 2549, 2550, 2511
2629, 2511, 2550, 2551, 2512
2630, 2512, 2551, 2552, 2513
2631, 2513, 2552, 2553, 2514
2632, 2514, 2553, 2554, 2515
2633, 2515, 2554, 2555, 2516
2634, 2516, 2555, 2556, 2517
2635, 2517, 2556, 2557, 2518
2636, 2518, 2557, 2558, 2519
2637, 2519, 2558, 2559, 2520
2638, 2520, 2559, 2560, 2521
2639, 2521, 2560, 2561, 2522
2640, 2522, 2561, 2562, 2523
2641, 2523, 2562, 2563, 2524
2642, 2524, 2563, 2564, 2525
2643, 2525, 2564, 2565, 2526
2644, 2526, 2565, 2566, 2527
2645, 2527, 2566, 2567, 2528
2646, 2528, 2567, 2568, 2529
2647, 2529, 2568, 2569, 2530
2648, 2530, 2569, 2570, 2531
2649, 2531, 2570, 2571, 2532
2650, 2532, 2571, 2572, 2533
2651, 2533, 2572, 2573, 2534
2652, 2534, 2573, 2574, 2535
2653, 2535, 2574, 2575, 2536
2654, 2536, 2575, 2576, 2537
2655, 2537, 2576, 2577, 2538
2656, 2538, 2577, 2578, 2539
2657, 2539, 2578, 2579, 2540
2658, 2540, 2579, 2580, 2541
2659, 2541, 2580, 2581, 2542
2660, 2542, 2581, 2582, 2543
2661, 2543, 2582, 2583, 2544
2662, 2544, 2583, 2584, 2545
2663, 2545, 2584, 2585, 2546
2664, 2546, 2585, 147, 148
2665, 59, 60, 2586, 2547
2666, 2547, 2586, 2587, 2548
2667, 2548, 2587, 2588, 2549
2668, 2549, 2588, 2589, 2550
2669, 2550, 2589, 2590, 2551
2670, 2551, 2590, 2591, 2552
2671, 2552, 2591, 2592, 2553
2672, 2553, 2592, 2593, 2554
2673, 2554, 2593, 2594, 2555
2674, 2555, 2594, 2595, 2556
2675, 2556, 2595, 2596, 2557
2676, 2557, 2596, 2597, 2558
2677, 2558, 2597, 2598, 2559
2678, 2559, 2598, 2599, 2560
2679, 2560, 2599, 2600, 2561
2680, 2561, 2600, 2601, 2562
2681, 2562, 2601, 2602, 2563
2682, 2563, 2602, 2603, 2564
2683, 2564, 2603, 2604, 2565
2684, 2565, 2604, 2605, 2566
2685, 2566, 2605, 2606, 2567
2686, 2567, 2606, 2607, 2568
2687, 2568, 2607, 2608, 2569
2688, 2569, 2608, 2609, 2570
2689, 2570, 2609, 2610, 2571
2690, 2571, 2610, 2611, 2572
2691, 2572, 2611, 2612, 2573
2692, 2573, 2612, 2613, 2574
2693, 2574, 2613, 2614, 2575
2694, 2575, 2614, 2615, 2576
2695, 2576, 2615, 2616, 2577
2696, 2577, 2616, 2617, 2578
2697, 2578, 2617, 2618, 2579
2698, 2579, 2618, 2619, 2580
2699, 2580, 2619, 2620, 2581
2700, 2581, 2620, 2621, 2582
2701, 2582, 2621, 2622, 2583
2702, 2583, 2622, 2623, 2584
2703, 2584, 2623, 2624, 2585
2704, 2585, 2624, 146, 147
2705, 60, 61, 2625, 2586
2706, 2586, 2625, 2626, 2587
2707, 2587, 2626, 2627, 2588
2708, 2588, 2627, 2628, 2589
2709, 2589, 2628, 2629, 2590
2710, 2590, 2629, 2630, 2591
2711, 2591, 2630, 2631, 2592
2712, 2592, 2631, 2632, 2593
2713, 2593, 2632, 2633, 2594
2714, 2594, 2633, 2634, 2595
2715, 2595, 2634, 2635, 2596
2716, 2596, 2635, 2636, 2597
2717, 2597, 2636, 2637, 2598
2718, 2598, 2637, 2638, 2599
2719, 2599, 2638, 2639, 2600
2720, 2600, 2639, 2640, 2601
2721, 2601, 2640, 2641, 2602
2722, 2602, 2641, 2642, 2603
2723, 2603, 2642, 2643, 2604
2724, 2604, 2643, 2644, 2605
2725, 2605, 2644, 2645, 2606
2726, 2606, 2645, 2646, 2607
2727, 2607, 2646, 2647, 2608
2728, 2608, 2647, 2648, 2609
2729, 2609, 2648, 2649, 2610
2730, 2610, 2649, 2650, 2611
2731, 2611, 2650, 2651, 2612
2732, 2612, 2651, 2652, 2613
2733, 2613, 2652, 2653, 2614
2734, 2614, 2653, 2654, 2615
2735, 2615, 2654, 2655, 2616
2736, 2616, 2655, 2656, 2617
2737, 2617, 2656, 2657, 2618
2738, 2618, 2657, 2658, 2619
2739, 2619, 2658, 2659, 2620
2740, 2620, 2659, 2660, 2621
2741, 2621, 2660, 2661, 2622
2742, 2622, 2661, 2662, 2623
2743, 2623, 2662, 2663, 2624
2744, 2624, 2663, 145, 146
2745, 61, 62, 2664, 2625
2746, 2625, 2664, 2665, 2626
2747, 2626, 2665, 2666, 2627
2748, 2627, 2666, 2667, 2628
2749, 2628, 2667, 2668, 2629
2750, 2629, 2668, 2669, 2630
2751, 2630, 2669, 2670, 2631
2752, 2631, 2670, 2671, 2632
2753, 2632, 2671, 2672, 2633
2754, 2633, 2672, 2673, 2634
2755, 2634, 2673, 2674, 2635
2756, 2635, 2674, 2675, 2636
2757, 2636, 2675, 2676, 2637
2758, 2637, 2676, 2677, 2638
2759, 2638, 2677, 2678, 2639
2760, 2639, 2678, 2679, 2640
2761, 2640, 2679, 2680, 2641
2762, 2641, 2680, 2681, 2642
2763, 2642, 2681, 2682, 2643
2764, 2643, 2682, 2683, 2644
2765, 2644, 2683, 2684, 2645
2766, 2645, 2684, 2685, 2646
2767, 2646, 2685, 2686, 2647
2768, 2647, 2686, 2687, 2648
2769, 2648, 2687, 2688, 2649
2770, 2649, 2688, 2689, 2650
2771, 2650, 2689, 2690, 2651
2772, 2651, 2690, 2691, 2652
2773, 2652, 2691, 2692, 2653
2774, 2653, 2692, 2693, 2654
2775, 2654, 2693, 2694, 2655
2776, 2655, 2694, 2695, 2656
2777, 2656, 2695, 2696, 2657
2778, 2657, 2696, 2697, 2658
2779, 2658, 2697, 2698, 2659
2780, 2659, 2698, 2699, 2660
2781, 2660, 2699, 2700, 2661
2782, 2661, 2700, 2701, 2662
2783, 2662, 2701, 2702, 2663
2784, 2663, 2702, 144, 145
2785, 62, 63, 2703, 2664
2786, 2664, 2703, 2704, 2665
2787, 2665, 2704, 2705, 2666
2788, 2666, 2705, 2706, 2667
2789, 2667, 2706, 2707, 2668
2790, 2668, 2707, 2708, 2669
2791, 2669, 2708, 2709, 2670
2792, 2670, 2709, 2710, 2671
2793, 2671, 2710, 2711, 2672
2794, 2672, 2711, 2712, 2673
2795, 2673, 2712, 2713, 2674
2796, 2674, 2713, 2714, 2675
2797, 2675, 2714, 2715, 2676
2798, 2676, 2715, 2716, 2677
2799, 2677, 2716, 2717, 2678
2800, 2678, 2717, 2718, 2679
2801, 2679, 2718, 2719, 2680
2802, 2680, 2719, 2720, 2681
2803, 2681, 2720, 2721, 2682
2804, 2682, 2721, 2722, 2683
2805, 2683, 2722, 2723, 2684
2806, 2684, 2723, 2724, 2685
2807, 2685, 2724, 2725, 2686
2808, 2686, 2725, 2726, 2687
2809, 2687, 2726, 2727, 2688
2810, 2688, 2727, 2728, 2689
2811, 2689, 2728, 2729, 2690
2812, 2690, 2729, 2730, 2691
2813, 2691, 2730, 2731, 2692
2814, 2692, 2731, 2732, 2693
2815, 2693, 2732, 2733, 2694
2816, 2694, 2733, 2734, 2695
2817, 2695, 2734, 2735, 2696
2818, 2696, 2735, 2736, 2697
2819, 2697, 2736, 2737, 2698
2820, 2698, 2737, 2738, 2699
2821, 2699, 2738, 2739, 2700
2822, 2700, 2739, 2740, 2701
2823, 2701, 2740, 2741, 2702
2824, 2702, 2741, 143, 144
2825, 63, 64, 2742, 2703
2826, 2703, 2742, 2743, 2704
2827, 2704, 2743, 2744, 2705
2828, 2705, 2744, 2745, 2706
2829, 2706, 2745, 2746, 2707
2830, 2707, 2746, 2747, 2708
2831, 2708, 2747, 2748, 2709
2832, 2709, 2748, 2749, 2710
2833, 2710, 2749, 2750, 2711
2834, 2711, 2750, 2751, 2712
2835, 2712, 2751, 2752, 2713
2836, 2713, 2752, 2753, 2714
2837, 2714, 2753, 2754, 2715
2838, 2715, 2754, 2755, 2716
2839, 2716, 2755, 2756, 2717
2840, 2717, 2756, 2757, 2718
2841, 2718, 2757, 2758, 2719
2842, 2719, 2758, 2759, 2720
2843, 2720, 2759, 2760, 2721
2844, 2721, 2760, 2761, 2722
2845, 2722, 2761, 2762, 2723
2846, 2723, 2762, 2763, 2724
2847, 2724, 2763, 2764, 2725
2848, 2725, 2764, 2765, 2726
2849, 2726, 2765, 2766, 2727
2850, 2727, 2766, 2767, 2728
2851, 2728, 2767, 2768, 2729
2852, 2729, 2768, 2769, 2730
2853, 2730, 2769, 2770, 2731
2854, 2731, 2770, 2771, 2732
2855, 2732, 2771, 2772, 2733
2856, 2733, 2772, 2773, 2734
2857, 2734, 2773, 2774, 2735
2858, 2735, 2774, 2775, 2736
2859, 2736, 2775, 2776, 2737
2860, 2737, 2776, 2777, 2738
2861, 2738, 2777, 2778, 2739
2862, 2739, 2778, 2779, 2740
2863, 2740, 2779, 2780, 2741
2864, 2741, 2780, 142, 143
2865, 64, 65, 2781, 2742
2866, 2742, 2781, 2782, 2743
2867, 2743, 2782, 2783, 2744
2868, 2744, 2783, 2784, 2745
2869, 2745, 2784, 2785, 2746
2870, 2746, 2785, 2786, 2747
2871, 2747, 2786, 2787, 2748
2872, 2748, 2787, 2788, 2749
2873, 2749, 2788, 2789, 2750
2874, 2750, 2789, 2790, 2751
2875, 2751, 2790, 2791, 2752
2876, 2752, 2791, 2792, 2753
2877, 2753, 2792, 2793, 2754
2878, 2754, 2793, 2794, 2755
2879, 2755, 2794, 2795, 2756
2880, 2756, 2795, 2796, 2757
2881, 2757, 2796, 2797, 2758
2882, 2758, 2797, 2798, 2759
2883, 2759, 2798, 2799, 2760
2884, 2760, 2799, 2800, 2761
2885, 2761, 2800, 2801, 2762
2886, 2762, 2801, 2802, 2763
2887, 2763, 2802, 2803, 2764
2888, 2764, 2803, 2804, 2765
2889, 2765, 2804, 2805, 2766
2890, 2766, 2805, 2806, 2767
2891, 2767, 2806, 2807, 2768
2892, 2768, 2807, 2808, 2769
2893, 2769, 2808, 2809, 2770
2894, 2770, 2809, 2810, 2771
2895, 2771, 2810, 2811, 2772
2896, 2772, 2811, 2812, 2773
2897, 2773, 2812, 2813, 2774
2898, 2774, 2813, 2814, 2775
2899, 2775, 2814, 2815, 2776
2900, 2776, 2815, 2816, 2777
2901, 2777, 2816, 2817, 2778
2902, 2778, 2817, 2818, 2779
2903, 2779, 2818, 2819, 2780
2904, 2780, 2819, 141, 142
2905, 65, 66, 2820, 2781
2906, 2781, 2820, 2821, 2782
2907, 2782, 2821, 2822, 2783
2908, 2783, 2822, 2823, 2784
2909, 2784, 2823, 2824, 2785
2910, 2785, 2824, 2825, 2786
2911, 2786, 2825, 2826, 2787
2912, 2787, 2826, 2827, 2788
2913, 2788, 2827, 2828, 2789
2914, 2789, 2828, 2829, 2790
2915, 2790, 2829, 2830, 2791
2916, 2791, 2830, 2831, 2792
2917, 2792, 2831, 2832, 2793
2918, 2793, 2832, 2833, 2794
2919, 2794, 2833, 2834, 2795
2920, 2795, 2834, 2835, 2796
2921, 2796, 2835, 2836, 2797
2922, 2797, 2836, 2837, 2798
2923, 2798, 2837, 2838, 2799
2924, 2799, 2838, 2839, 2800
2925, 2800, 2839, 2840, 2801
2926, 2801, 2840, 2841, 2802
2927, 2802, 2841, 2842, 2803
2928, 2803, 2842, 2843, 2804
2929, 2804, 2843, 2844, 2805
2930, 2805, 2844, 2845, 2806
2931, 2806, 2845, 2846, 2807
2932, 2807, 2846, 2847, 2808
2933, 2808, 2847, 2848, 2809
2934, 2809, 2848, 2849, 2810
2935, 2810, 2849, 2850, 2811
2936, 2811, 2850, 2851, 2812
2937, 2812, 2851, 2852, 2813
2938, 2813, 2852, 2853, 2814
2939, 2814, 2853, 2854, 2815
2940, 2815, 2854, 2855, 2816
2941, 2816, 2855, 2856, 2817
2942, 2817, 2856, 2857, 2818
2943, 2818, 2857, 2858, 2819
2944, 2819, 2858, 140, 141
2945, 66, 67, 2859, 2820
2946, 2820, 2859, 2860, 2821
2947, 2821, 2860, 2861, 2822
2948, 2822, 2861, 2862, 2823
2949, 2823, 2862, 2863, 2824
2950, 2824, 2863, 2864, 2825
2951, 2825, 2864, 2865, 2826
2952, 2826, 2865, 2866, 2827
2953, 2827, 2866, 2867, 2828
2954, 2828, 2867, 2868, 2829
2955, 2829, 2868, 2869, 2830
2956, 2830, 2869, 2870, 2831
2957, 2831, 2870, 2871, 2832
2958, 2832, 2871, 2872, 2833
2959, 2833, 2872, 2873, 2834
2960, 2834, 2873, 2874, 2835
2961, 2835, 2874, 2875, 2836
2962, 2836, 2875, 2876, 2837
2963, 2837, 2876, 2877, 2838
2964, 2838, 2877, 2878, 2839
2965, 2839, 2878, 2879, 2840
2966, 2840, 2879, 2880, 2841
2967, 2841, 2880, 2881, 2842
2968, 2842, 2881, 2882, 2843
2969, 2843, 2882, 2883, 2844
2970, 2844, 2883, 2884, 2845
2971, 2845, 2884, 2885, 2846
2972, 2846, 2885, 2886, 2847
2973, 2847, 2886, 2887, 2848
2974, 2848, 2887, 2888, 2849
2975, 2849, 2888, 2889, 2850
2976, 2850, 2889, 2890, 2851
2977, 2851, 2890, 2891, 2852
2978, 2852, 2891, 2892, 2853
2979, 2853, 2892, 2893, 2854
2980, 2854, 2893, 2894, 2855
2981, 2855, 2894, 2895, 2856
2982, 2856, 2895, 2896, 2857
2983, 2857, 2896, 2897, 2858
2984, 2858, 2897, 139, 140
2985, 67, 68, 2898, 2859
2986, 2859, 2898, 2899, 2860
2987, 2860, 2899, 2900, 2861
2988, 2861, 2900, 2901, 2862
2989, 2862, 2901, 2902, 2863
2990, 2863, 2902, 2903, 2864
2991, 2864, 2903, 2904, 2865
2992, 2865, 2904, 2905, 2866
2993, 2866, 2905, 2906, 2867
2994, 2867, 2906, 2907, 2868
2995, 2868, 2907, 2908, 2869
2996, 2869, 2908, 2909, 2870
2997, 2870, 2909, 2910, 2871
2998, 2871, 2910, 2911, 2872
2999, 2872, 2911, 2912, 2873
3000, 2873, 2912, 2913, 2874
3001, 2874, 2913, 2914, 2875
3002, 2875, 2914, 2915, 2876
3003, 2876, 2915, 2916, 2877
3004, 2877, 2916, 2917, 2878
3005, 2878, 2917, 2918, 2879
3006, 2879, 2918, 2919, 2880
3007, 2880, 2919, 2920, 2881
3008, 2881, 2920, 2921, 2882
3009, 2882, 2921, 2922, 2883
3010, 2883, 2922, 2923, 2884
3011, 2884, 2923, 2924, 2885
3012, 2885, 2924, 2925, 2886
3013, 2886, 2925, 2926, 2887
3014, 2887, 2926, 2927, 2888
3015, 2888, 2927, 2928, 2889
3016, 2889, 2928, 2929, 2890
3017, 2890, 2929, 2930, 2891
3018, 2891, 2930, 2931, 2892
3019, 2892, 2931, 2932, 2893
3020, 2893, 2932, 2933, 2894
3021, 2894, 2933, 2934, 2895
3022, 2895, 2934, 2935, 2896
3023, 2896, 2935, 2936, 2897
3024, 2897, 2936, 138, 139
3025, 68, 69, 2937, 2898
3026, 2898, 2937, 2938, 2899
3027, 2899, 2938, 2939, 2900
3028, 2900, 2939, 2940, 2901
3029, 2901, 2940, 2941, 2902
3030, 2902, 2941, 2942, 2903
3031, 2903, 2942, 2943, 2904
3032, 2904, 2943, 2944, 2905
3033, 2905, 2944, 2945, 2906
3034, 2906, 2945, 2946, 2907
3035, 2907, 2946, 2947, 2908
3036, 2908, 2947, 2948, 2909
3037, 2909, 2948, 2949, 2910
3038, 2910, 2949, 2950, 2911
3039, 2911, 2950, 2951, 2912
3040, 2912, 2951, 2952, 2913
3041, 2913, 2952, 2953, 2914
3042, 2914, 2953, 2954, 2915
3043, 2915, 2954, 2955, 2916
3044, 2916, 2955, 2956, 2917
3045, 2917, 2956, 2957, 2918
3046, 2918, 2957, 2958, 2919
3047, 2919, 2958, 2959, 2920
3048, 2920, 2959, 2960, 2921
3049, 2921, 2960, 2961, 2922
3050, 2922, 2961, 2962, 2923
3051, 2923, 2962, 2963, 2924
3052, 2924, 2963, 2964, 2925
3053, 2925, 2964, 2965, 2926
3054, 2926, 2965, 2966, 2927
3055, 2927, 2966, 2967, 2928
3056, 2928, 2967, 2968, 2929
3057, 2929, 2968, 2969, 2930
3058, 2930, 2969, 2970, 2931
3059, 2931, 2970, 2971, 2932
3060, 2932, 2971, 2972, 2933
3061, 2933, 2972, 2973, 2934
3062, 2934, 2973, 2974, 2935
3063, 2935, 2974, 2975, 2936
3064, 2936, 2975, 137, 138
3065, 69, 70, 2976, 2937
3066, 2937, 2976, 2977, 2938
3067, 2938, 2977, 2978, 2939
3068, 2939, 2978, 2979, 2940
3069, 2940, 2979, 2980, 2941
3070, 2941, 2980, 2981, 2942
3071, 2942, 2981, 2982, 2943
3072, 2943, 2982, 2983, 2944
3073, 2944, 2983, 2984, 2945
3074, 2945, 2984, 2985, 2946
3075, 2946, 2985, 2986, 2947
3076, 2947, 2986, 2987, 2948
3077, 2948, 2987, 2988, 2949
3078, 2949, 2988, 2989, 2950
3079, 2950, 2989, 2990, 2951
3080, 2951, 2990, 2991, 2952
3081, 2952, 2991, 2992, 2953
3082, 2953, 2992, 2993, 2954
3083, 2954, 2993, 2994, 2955
3084, 2955, 2994, 2995, 2956
3085, 2956, 2995, 2996, 2957
3086, 2957, 2996, 2997, 2958
3087, 2958, 2997, 2998, 2959
3088, 2959, 2998, 2999, 2960
3089, 2960, 2999, 3000, 2961
3090, 2961, 3000, 3001, 2962
3091, 2962, 3001, 3002, 2963
3092, 2963, 3002, 3003, 2964
3093, 2964, 3003, 3004, 2965
3094, 2965, 3004, 3005, 2966
3095, 2966, 3005, 3006, 2967
3096, 2967, 3006, 3007, 2968
3097, 2968, 3007, 3008, 2969
3098, 2969, 3008, 3009, 2970
3099, 2970, 3009, 3010, 2971
3100, 2971, 3010, 3011, 2972
3101, 2972, 3011, 3012, 2973
3102, 2973, 3012, 3013, 2974
3103, 2974, 3013, 3014, 2975
3104, 2975, 3014, 136, 137
3105, 70, 71, 3015, 2976
3106, 2976, 3015, 3016, 2977
3107, 2977, 3016, 3017, 2978
3108, 2978, 3017, 3018, 2979
3109, 2979, 3018, 3019, 2980
3110, 2980, 3019, 3020, 2981
3111, 2981, 3020, 3021, 2982
3112, 2982, 3021, 3022, 2983
3113, 2983, 3022, 3023, 2984
3114, 2984, 3023, 3024, 2985
3115, 2985, 3024, 3025, 2986
3116, 2986, 3025, 3026, 2987
3117, 2987, 3026, 3027, 2988
3118, 2988, 3027, 3028, 2989
3119, 2989, 3028, 3029, 2990
3120, 2990, 3029, 3030, 2991
3121, 2991, 3030, 3031, 2992
3122, 2992, 3031, 3032, 2993
3123, 2993, 3032, 3033, 2994
3124, 2994, 3033, 3034, 2995
3125, 2995, 3034, 3035, 2996
3126, 2996, 3035, 3036, 2997
3127, 2997, 3036, 3037, 2998
3128, 2998, 3037, 3038, 2999
3129, 2999, 3038, 3039, 3000
3130, 3000, 3039, 3040, 3001
3131, 3001, 3040, 3041, 3002
3132, 3002, 3041, 3042, 3003
3133, 3003, 3042, 3043, 3004
3134, 3004, 3043, 3044, 3005
3135, 3005, 3044, 3045, 3006
3136, 3006, 3045, 3046, 3007
3137, 3007, 3046, 3047, 3008
3138, 3008, 3047, 3048, 3009
3139, 3009, 3048, 3049, 3010
3140, 3010, 3049, 3050, 3011
3141, 3011, 3050, 3051, 3012
3142, 3012, 3051, 3052, 3013
3143, 3013, 3052, 3053, 3014
3144, 3014, 3053, 135, 136
3145, 71, 72, 3054, 3015
3146, 3015, 3054, 3055, 3016
3147, 3016, 3055, 3056, 3017
3148, 3017, 3056, 3057, 3018
3149, 3018, 3057, 3058, 3019
3150, 3019, 3058, 3059, 3020
3151, 3020, 3059, 3060, 3021
3152, 3021, 3060, 3061, 3022
3153, 3022, 3061, 3062, 3023
3154, 3023, 3062, 3063, 3024
3155, 3024, 3063, 3064, 3025
3156, 3025, 3064, 3065, 3026
3157, 3026, 3065, 3066, 3027
3158, 3027, 3066, 3067, 3028
3159, 3028, 3067, 3068, 3029
3160, 3029, 3068, 3069, 3030
3161, 3030, 3069, 3070, 3031
3162, 3031, 3070, 3071, 3032
3163, 3032, 3071, 3072, 3033
3164, 3033, 3072, 3073, 3034
3165, 3034, 3073, 3074, 3035
3166, 3035, 3074, 3075, 3036
3167, 3036, 3075, 3076, 3037
3168, 3037, 3076, 3077, 3038
3169, 3038, 3077, 3078, 3039
3170, 3039, 3078, 3079, 3040
3171, 3040, 3079, 3080, 3041
3172, 3041, 3080, 3081, 3042
3173, 3042, 3081, 3082, 3043
3174, 3043, 3082, 3083, 3044
3175, 3044, 3083, 3084, 3045
3176, 3045, 3084, 3085, 3046
3177, 3046, 3085, 3086, 3047
3178, 3047, 3086, 3087, 3048
3179, 3048, 3087, 3088, 3049
3180, 3049, 3088, 3089, 3050
3181, 3050, 3089, 3090, 3051
3182, 3051, 3090, 3091, 3052
3183, 3052, 3091, 3092, 3053
3184, 3053, 3092, 134, 135
3185, 72, 73, 3093, 3054
3186, 3054, 3093, 3094, 3055
3187, 3055, 3094, 3095, 3056
3188, 3056, 3095, 3096, 3057
3189, 3057, 3096, 3097, 3058
3190, 3058, 3097, 3098, 3059
3191, 3059, 3098, 3099, 3060
3192, 3060, 3099, 3100, 3061
3193, 3061, 3100, 3101, 3062
3194, 3062, 3101, 3102, 3063
3195, 3063, 3102, 3103, 3064
3196, 3064, 3103, 3104, 3065
3197, 3065, 3104, 3105, 3066
3198, 3066, 3105, 3106, 3067
3199, 3067, 3106, 3107, 3068
3200, 3068, 3107, 3108, 3069
3201, 3069, 3108, 3109, 3070
3202, 3070, 3109, 3110, 3071
3203, 3071, 3110, 3111, 3072
3204, 3072, 3111, 3112, 3073
3205, 3073, 3112, 3113, 3074
3206, 3074, 3113, 3114, 3075
3207, 3075, 3114, 3115, 3076
3208, 3076, 3115, 3116, 3077
3209, 3077, 3116, 3117, 3078
3210, 3078, 3117, 3118, 3079
3211, 3079, 3118, 3119, 3080
3212, 3080, 3119, 3120, 3081
3213, 3081, 3120, 3121, 3082
3214, 3082, 3121, 3122, 3083
3215, 3083, 3122, 3123, 3084
3216, 3084, 3123, 3124, 3085
3217, 3085, 3124, 3125, 3086
3218, 3086, 3125, 3126, 3087
3219, 3087, 3126, 3127, 3088
3220, 3088, 3127, 3128, 3089
3221, 3089, 3128, 3129, 3090
3222, 3090, 3129, 3130, 3091
3223, 3091, 3130, 3131, 3092
3224, 3092, 3131, 133, 134
3225, 73, 74, 3132, 3093
3226, 3093, 3132, 3133, 3094
3227, 3094, 3133, 3134, 3095
3228, 3095, 3134, 3135, 3096
3229, 3096, 3135, 3136, 3097
3230, 3097, 3136, 3137, 3098
3231, 3098, 3137, 3138, 3099
3232, 3099, 3138, 3139, 3100
3233, 3100, 3139, 3140, 3101
3234, 3101, 3140, 3141, 3102
3235, 3102, 3141, 3142, 3103
3236, 3103, 3142, 3143, 3104
3237, 3104, 3143, 3144, 3105
3238, 3105, 3144, 3145, 3106
3239, 3106, 3145, 3146, 3107
3240, 3107, 3146, 3147, 3108
3241, 3108, 3147, 3148, 3109
3242, 3109, 3148, 3149, 3110
3243, 3110, 3149, 3150, 3111
3244, 3111, 3150, 3151, 3112
3245, 3112, 3151, 3152, 3113
3246, 3113, 3152, 3153, 3114
3247, 3114, 3153, 3154, 3115
3248, 3115, 3154, 3155, 3116
3249, 3116, 3155, 3156, 3117
3250, 3117, 3156, 3157, 3118
3251, 3118, 3157, 3158, 3119
3252, 3119, 3158, 3159, 3120
3253, 3120, 3159, 3160, 3121
3254, 3121, 3160, 3161, 3122
3255, 3122, 3161, 3162, 3123
3256, 3123, 3162, 3163, 3124
3257, 3124, 3163, 3164, 3125
3258, 3125, 3164, 3165, 3126
3259, 3126, 3165, 3166, 3127
3260, 3127, 3166, 3167, 3128
3261, 3128, 3167, 3168, 3129
3262, 3129, 3168, 3169, 3130
3263, 3130, 3169, 3170, 3131
3264, 3131, 3170, 132, 133
3265, 74, 75, 3171, 3132
3266, 3132, 3171, 3172, 3133
3267, 3133, 3172, 3173, 3134
3268, 3134, 3173, 3174, 3135
3269, 3135, 3174, 3175, 3136
3270, 3136, 3175, 3176, 3137
3271, 3137, 3176, 3177, 3138
3272, 3138, 3177, 3178, 3139
3273, 3139, 3178, 3179, 3140
3274, 3140, 3179, 3180, 3141
3275, 3141, 3180, 3181, 3142
3276, 3142, 3181, 3182, 3143
3277, 3143, 3182, 3183, 3144
3278, 3144, 3183, 3184, 3145
3279, 3145, 3184, 3185, 3146
3280, 3146, 3185, 3186, 3147
3281, 3147, 3186, 3187, 3148
3282, 3148, 3187, 3188, 3149
3283, 3149, 3188, 3189, 3150
3284, 3150, 3189, 3190, 3151
3285, 3151, 3190, 3191, 3152
3286, 3152, 3191, 3192, 3153
3287, 3153, 3192, 3193, 3154
3288, 3154, 3193, 3194, 3155
3289, 3155, 3194, 3195, 3156
3290, 3156, 3195, 3196, 3157
3291, 3157, 3196, 3197, 3158
3292, 3158, 3197, 3198, 3159
3293, 3159, 3198, 3199, 3160
3294, 3160, 3199, 3200, 3161
3295, 3161, 3200, 3201, 3162
3296, 3162, 3201, 3202, 3163
3297, 3163, 3202, 3203, 3164
3298, 3164, 3203, 3204, 3165
3299, 3165, 3204, 3205, 3166
3300, 3166, 3205, 3206, 3167
3301, 3167, 3206, 3207, 3168
3302, 3168, 3207, 3208, 3169
3303, 3169, 3208, 3209, 3170
3304, 3170, 3209, 131, 132
3305, 75, 76, 3210, 3171
3306, 3171, 3210, 3211, 3172
3307, 3172, 3211, 3212, 3173
3308, 3173, 3212, 3213, 3174
3309, 3174, 3213, 3214, 3175
3310, 3175, 3214, 3215, 3176
3311, 3176, 3215, 3216, 3177
3312, 3177, 3216, 3217, 3178
3313, 3178, 3217, 3218, 3179
3314, 3179, 3218, 3219, 3180
3315, 3180, 3219, 3220, 3181
3316, 3181, 3220, 3221, 3182
3317, 3182, 3221, 3222, 3183
3318, 3183, 3222, 3223, 3184
3319, 3184, 3223, 3224, 3185
3320, 3185, 3224, 3225, 3186
3321, 3186, 3225, 3226, 3187
3322, 3187, 3226, 3227, 3188
3323, 3188, 3227, 3228, 3189
3324, 3189, 3228, 3229, 3190
3325, 3190, 3229, 3230, 3191
3326, 3191, 3230, 3231, 3192
3327, 3192, 3231, 3232, 3193
3328, 3193, 3232, 3233, 3194
3329, 3194, 3233, 3234, 3195
3330, 3195, 3234, 3235, 3196
3331, 3196, 3235, 3236, 3197
3332, 3197, 3236, 3237, 3198
3333, 3198, 3237, 3238, 3199
3334, 3199, 3238, 3239, 3200
3335, 3200, 3239, 3240, 3201
3336, 3201, 3240, 3241, 3202
3337, 3202, 3241, 3242, 3203
3338, 3203, 3242, 3243, 3204
3339, 3204, 3243, 3244, 3205
3340, 3205, 3244, 3245, 3206
3341, 3206, 3245, 3246, 3207
3342, 3207, 3246, 3247, 3208
3343, 3208, 3247, 3248, 3209
3344, 3209, 3248, 130, 131
3345, 76, 77, 3249, 3210
3346, 3210, 3249, 3250, 3211
3347, 3211, 3250, 3251, 3212
3348, 3212, 3251, 3252, 3213
3349, 3213, 3252, 3253, 3214
3350, 3214, 3253, 3254, 3215
3351, 3215, 3254, 3255, 3216
3352, 3216, 3255, 3256, 3217
3353, 3217, 3256, 3257, 3218
3354, 3218, 3257, 3258, 3219
3355, 3219, 3258, 3259, 3220
3356, 3220, 3259, 3260, 3221
3357, 3221, 3260, 3261, 3222
3358, 3222, 3261, 3262, 3223
3359, 3223, 3262, 3263, 3224
3360, 3224, 3263, 3264, 3225
3361, 3225, 3264, 3265, 3226
3362, 3226, 3265, 3266, 3227
3363, 3227, 3266, 3267, 3228
3364, 3228, 3267, 3268, 3229
3365, 3229, 3268, 3269, 3230
3366, 3230, 3269, 3270, 3231
3367, 3231, 3270, 3271, 3232
3368, 3232, 3271, 3272, 3233
3369, 3233, 3272, 3273, 3234
3370, 3234, 3273, 3274, 3235
3371, 3235, 3274, 3275, 3236
3372, 3236, 3275, 3276, 3237
3373, 3237, 3276, 3277, 3238
3374, 3238, 3277, 3278, 3239
3375, 3239, 3278, 3279, 3240
3376, 3240, 3279, 3280, 3241
3377, 3241, 3280, 3281, 3242
3378, 3242, 3281, 3282, 3243
3379, 3243, 3282, 3283, 3244
3380, 3244, 3283, 3284, 3245
3381, 3245, 3284, 3285, 3246
3382, 3246, 3285, 3286, 3247
3383, 3247, 3286, 3287, 3248
3384, 3248, 3287, 129, 130
3385, 77, 78, 3288, 3249
3386, 3249, 3288, 3289, 3250
3387, 3250, 3289, 3290, 3251
3388, 3251, 3290, 3291, 3252
3389, 3252, 3291, 3292, 3253
3390, 3253, 3292, 3293, 3254
3391, 3254, 3293, 3294, 3255
3392, 3255, 3294, 3295, 3256
3393, 3256, 3295, 3296, 3257
3394, 3257, 3296, 3297, 3258
3395, 3258, 3297, 3298, 3259
3396, 3259, 3298, 3299, 3260
3397, 3260, 3299, 3300, 3261
3398, 3261, 3300, 3301, 3262
3399, 3262, 3301, 3302, 3263
3400, 3263, 3302, 3303, 3264
3401, 3264, 3303, 3304, 3265
3402, 3265, 3304, 3305, 3266
3403, 3266, 3305, 3306, 3267
3404, 3267, 3306, 3307, 3268
3405, 3268, 3307, 3308, 3269
3406, 3269, 3308, 3309, 3270
3407, 3270, 3309, 3310, 3271
3408, 3271, 3310, 3311, 3272
3409, 3272, 3311, 3312, 3273
3410, 3273, 3312, 3313, 3274
3411, 3274, 3313, 3314, 3275
3412, 3275, 3314, 3315, 3276
3413, 3276, 3315, 3316, 3277
3414, 3277, 3316, 3317, 3278
3415, 3278, 3317, 3318, 3279
3416, 3279, 3318, 3319, 3280
3417, 3280, 3319, 3320, 3281
3418, 3281, 3320, 3321, 3282
3419, 3282, 3321, 3322, 3283
3420, 3283, 3322, 3323, 3284
3421, 3284, 3323, 3324, 3285
3422, 3285, 3324, 3325, 3286
3423, 3286, 3325, 3326, 3287
3424, 3287, 3326, 128, 129
3425, 78, 79, 3327, 3288
3426, 3288, 3327, 3328, 3289
3427, 3289, 3328, 3329, 3290
3428, 3290, 3329, 3330, 3291
3429, 3291, 3330, 3331, 3292
3430, 3292, 3331, 3332, 3293
3431, 3293, 3332, 3333, 3294
3432, 3294, 3333, 3334, 3295
3433, 3295, 3334, 3335, 3296
3434, 3296, 3335, 3336, 3297
3435, 3297, 3336, 3337, 3298
3436, 3298, 3337, 3338, 3299
3437, 3299, 3338, 3339, 3300
3438, 3300, 3339, 3340, 3301
3439, 3301, 3340, 3341, 3302
3440, 3302, 3341, 3342, 3303
3441, 3303, 3342, 3343, 3304
3442, 3304, 3343, 3344, 3305
3443, 3305, 3344, 3345, 3306
3444, 3306, 3345, 3346, 3307
3445, 3307, 3346, 3347, 3308
3446, 3308, 3347, 3348, 3309
3447, 3309, 3348, 3349, 3310
3448, 3310, 3349, 3350, 3311
3449, 3311, 3350, 3351, 3312
3450, 3312, 3351, 3352, 3313
3451, 3313, 3352, 3353, 3314
3452, 3314, 3353, 3354, 3315
3453, 3315, 3354, 3355, 3316
3454, 3316, 3355, 3356, 3317
3455, 3317, 3356, 3357, 3318
3456, 3318, 3357, 3358, 3319
3457, 3319, 3358, 3359, 3320
3458, 3320, 3359, 3360, 3321
3459, 3321, 3360, 3361, 3322
3460, 3322, 3361, 3362, 3323
3461, 3323, 3362, 3363, 3324
3462, 3324, 3363, 3364, 3325
3463, 3325, 3364, 3365, 3326
3464, 3326, 3365, 127, 128
3465, 79, 80, 3366, 3327
3466, 3327, 3366, 3367, 3328
3467, 3328, 3367, 3368, 3329
3468, 3329, 3368, 3369, 3330
3469, 3330, 3369, 3370, 3331
3470, 3331, 3370, 3371, 3332
3471, 3332, 3371, 3372, 3333
3472, 3333, 3372, 3373, 3334
3473, 3334, 3373, 3374, 3335
3474, 3335, 3374, 3375, 3336
3475, 3336, 3375, 3376, 3337
3476, 3337, 3376, 3377, 3338
3477, 3338, 3377, 3378, 3339
3478, 3339, 3378, 3379, 3340
3479, 3340, 3379, 3380, 3341
3480, 3341, 3380, 3381, 3342
3481, 3342, 3381, 3382, 3343
3482, 3343, 3382, 3383, 3344
3483, 3344, 3383, 3384, 3345
3484, 3345, 3384, 3385, 3346
3485, 3346, 3385, 3386, 3347
3486, 3347, 3386, 3387, 3348
3487, 3348, 3387, 3388, 3349
3488, 3349, 3388, 3389, 3350
3489, 3350, 3389, 3390, 3351
3490, 3351, 3390, 3391, 3352
3491, 3352, 3391, 3392, 3353
3492, 3353, 3392, 3393, 3354
3493, 3354, 3393, 3394, 3355
3494, 3355, 3394, 3395, 3356
3495, 3356, 3395, 3396, 3357
3496, 3357, 3396, 3397, 3358
3497, 3358, 3397, 3398, 3359
3498, 3359, 3398, 3399, 3360
3499, 3360, 3399, 3400, 3361
3500, 3361, 3400, 3401, 3362
3501, 3362, 3401, 3402, 3363
3502, 3363, 3402, 3403, 3364
3503, 3364, 3403, 3404, 3365
3504, 3365, 3404, 126, 127
3505, 80, 81, 3405, 3366
3506, 3366, 3405, 3406, 3367
3507, 3367, 3406, 3407, 3368
3508, 3368, 3407, 3408, 3369
3509, 3369, 3408, 3409, 3370
3510, 3370, 3409, 3410, 3371
3511, 3371, 3410, 3411, 3372
3512, 3372, 3411, 3412, 3373
3513, 3373, 3412, 3413, 3374
3514, 3374, 3413, 3414, 3375
3515, 3375, 3414, 3415, 3376
3516, 3376, 3415, 3416, 3377
3517, 3377, 3416, 3417, 3378
3518, 3378, 3417, 3418, 3379
3519, 3379, 3418, 3419, 3380
3520, 3380, 3419, 3420, 3381
3521, 3381, 3420, 3421, 3382
3522, 3382, 3421, 3422, 3383
3523, 3383, 3422, 3423, 3384
3524, 3384, 3423, 3424, 3385
3525, 3385, 3424, 3425, 3386
3526, 3386, 3425, 3426, 3387
3527, 3387, 3426, 3427, 3388
3528, 3388, 3427, 3428, 3389
3529, 3389, 3428, 3429, 3390
3530, 3390, 3429, 3430, 3391
3531, 3391, 3430, 3431, 3392
3532, 3392, 3431, 3432, 3393
3533, 3393, 3432, 3433, 3394
3534, 3394, 3433, 3434, 3395
3535, 3395, 3434, 3435, 3396
3536, 3396, 3435, 3436, 3397
3537, 3397, 3436, 3437, 3398
3538, 3398, 3437, 3438, 3399
3539, 3399, 3438, 3439, 3400
3540, 3400, 3439, 3440, 3401
3541, 3401, 3440, 3441, 3402
3542, 3402, 3441, 3442, 3403
3543, 3403, 3442, 3443, 3404
3544, 3404, 3443, 125, 126
3545, 81, 82, 3444, 3405
3546, 3405, 3444, 3445, 3406
3547, 3406, 3445, 3446, 3407
3548, 3407, 3446, 3447, 3408
3549, 3408, 3447, 3448, 3409
3550, 3409, 3448, 3449, 3410
3551, 3410, 3449, 3450, 3411
3552, 3411, 3450, 3451, 3412
3553, 3412, 3451, 3452, 3413
3554, 3413, 3452, 3453, 3414
3555, 3414, 3453, 3454, 3415
3556, 3415, 3454, 3455, 3416
3557, 3416, 3455, 3456, 3417
3558, 3417, 3456, 3457, 3418
3559, 3418, 3457, 3458, 3419
3560, 3419, 3458, 3459, 3420
3561, 3420, 3459, 3460, 3421
3562, 3421, 3460, 3461, 3422
3563, 3422, 3461, 3462, 3423
3564, 3423, 3462, 3463, 3424
3565, 3424, 3463, 3464, 3425
3566, 3425, 3464, 3465, 3426
3567, 3426, 3465, 3466, 3427
3568, 3427, 3466, 3467, 3428
3569, 3428, 3467, 3468, 3429
3570, 3429, 3468, 3469, 3430
3571, 3430, 3469, 3470, 3431
3572, 3431, 3470, 3471, 3432
3573, 3432, 3471, 3472, 3433
3574, 3433, 3472, 3473, 3434
3575, 3434, 3473, 3474, 3435
3576, 3435, 3474, 3475, 3436
3577, 3436, 3475, 3476, 3437
3578, 3437, 3476, 3477, 3438
3579, 3438, 3477, 3478, 3439
3580, 3439, 3478, 3479, 3440
3581, 3440, 3479, 3480, 3441
3582, 3441, 3480, 3481, 3442
3583, 3442, 3481, 3482, 3443
3584, 3443, 3482, 124, 125
3585, 82, 83, 3483, 3444
3586, 3444, 3483, 3484, 3445
3587, 3445, 3484, 3485, 3446
3588, 3446, 3485, 3486, 3447
3589, 3447, 3486, 3487, 3448
3590, 3448, 3487, 3488, 3449
3591, 3449, 3488, 3489, 3450
3592, 3450, 3489, 3490, 3451
3593, 3451, 3490, 3491, 3452
3594, 3452, 3491, 3492, 3453
3595, 3453, 3492, 3493, 3454
3596, 3454, 3493, 3494, 3455
3597, 3455, 3494, 3495, 3456
3598, 3456, 3495, 3496, 3457
3599, 3457, 3496, 3497, 3458
3600, 3458, 3497, 3498, 3459
3601, 3459, 3498, 3499, 3460
3602, 3460, 3499, 3500, 3461
3603, 3461, 3500, 3501, 3462
3604, 3462, 3501, 3502, 3463
3605, 3463, 3502, 3503, 3464
3606, 3464, 3503, 3504, 3465
3607, 3465, 3504, 3505, 3466
3608, 3466, 3505, 3506, 3467
3609, 3467, 3506, 3507, 3468
3610, 3468, 3507, 3508, 3469
3611, 3469, 3508, 3509, 3470
3612, 3470, 3509, 3510, 3471
3613, 3471, 3510, 3511, 3472
3614, 3472, 3511, 3512, 3473
3615, 3473, 3512, 3513, 3474
3616, 3474, 3513, 3514, 3475
3617, 3475, 3514, 3515, 3476
3618, 3476, 3515, 3516, 3477
3619, 3477, 3516, 3517, 3478
3620, 3478, 3517, 3518, 3479
3621, 3479, 3518, 3519, 3480
3622, 3480, 3519, 3520, 3481
3623, 3481, 3520, 3521, 3482
3624, 3482, 3521, 123, 124
3625, 83, 2, 84, 3483
3626, 3483, 84, 85, 3484
3627, 3484, 85, 86, 3485
3628, 3485, 86, 87, 3486
3629, 3486, 87, 88, 3487
3630, 3487, 88, 89, 3488
3631, 3488, 89, 90, 3489
3632, 3489, 90, 91, 3490
3633, 3490, 91, 92, 3491
3634, 3491, 92, 93, 3492
3635, 3492, 93, 94, 3493
3636, 3493, 94, 95, 3494
3637, 3494, 95, 96, 3495
3638, 3495, 96, 97, 3496
3639, 3496, 97, 98, 3497
3640, 3497, 98, 99, 3498
3641, 3498, 99, 100, 3499
3642, 3499, 100, 101, 3500
3643, 3500, 101, 102, 3501
3644, 3501, 102, 103, 3502
3645, 3502, 103, 104, 3503
3646, 3503, 104, 105, 3504
3647, 3504, 105, 106, 3505
3648, 3505, 106, 107, 3506
3649, 3506, 107, 108, 3507
3650, 3507, 108, 109, 3508
3651, 3508, 109, 110, 3509
3652, 3509, 110, 111, 3510
3653, 3510, 111, 112, 3511
3654, 3511, 112, 113, 3512
3655, 3512, 113, 114, 3513
3656, 3513, 114, 115, 3514
3657, 3514, 115, 116, 3515
3658, 3515, 116, 117, 3516
3659, 3516, 117, 118, 3517
3660, 3517, 118, 119, 3518
3661, 3518, 119, 120, 3519
3662, 3519, 120, 121, 3520
3663, 3520, 121, 122, 3521
3664, 3521, 122, 3, 123
3665, 1, 25, 3522, 417
3666, 417, 3522, 3523, 418
3667, 418, 3523, 3524, 419
3668, 419, 3524, 221, 5
3669, 25, 26, 3525, 3522
3670, 3522, 3525, 3526, 3523
3671, 3523, 3526, 3527, 3524
3672, 3524, 3527, 222, 221
3673, 26, 27, 3528, 3525
3674, 3525, 3528, 3529, 3526
3675, 3526, 3529, 3530, 3527
3676, 3527, 3530, 223, 222
3677, 27, 28, 3531, 3528
3678, 3528, 3531, 3532, 3529
3679, 3529, 3532, 3533, 3530
3680, 3530, 3533, 224, 223
3681, 28, 29, 3534, 3531
3682, 3531, 3534, 3535, 3532
3683, 3532, 3535, 3536, 3533
3684, 3533, 3536, 225, 224
3685, 29, 30, 3537, 3534
3686, 3534, 3537, 3538, 3535
3687, 3535, 3538, 3539, 3536
3688, 3536, 3539, 226, 225
3689, 30, 31, 3540, 3537
3690, 3537, 3540, 3541, 3538
3691, 3538, 3541, 3542, 3539
3692, 3539, 3542, 227, 226
3693, 31, 32, 3543, 3540
3694, 3540, 3543, 3544, 3541
3695, 3541, 3544, 3545, 3542
3696, 3542, 3545, 228, 227
3697, 32, 33, 3546, 3543
3698, 3543, 3546, 3547, 3544
3699, 3544, 3547, 3548, 3545
3700, 3545, 3548, 229, 228
3701, 33, 34, 3549, 3546
3702, 3546, 3549, 3550, 3547
3703, 3547, 3550, 3551, 3548
3704, 3548, 3551, 230, 229
3705, 34, 35, 3552, 3549
3706, 3549, 3552, 3553, 3550
3707, 3550, 3553, 3554, 3551
3708, 3551, 3554, 231, 230
3709, 35, 36, 3555, 3552
3710, 3552, 3555, 3556, 3553
3711, 3553, 3556, 3557, 3554
3712, 3554, 3557, 232, 231
3713, 36, 37, 3558, 3555
3714, 3555, 3558, 3559, 3556
3715, 3556, 3559, 3560, 3557
3716, 3557, 3560, 233, 232
3717, 37, 38, 3561, 3558
3718, 3558, 3561, 3562, 3559
3719, 3559, 3562, 3563, 3560
3720, 3560, 3563, 234, 233
3721, 38, 39, 3564, 3561
3722, 3561, 3564, 3565, 3562
3723, 3562, 3565, 3566, 3563
3724, 3563, 3566, 235, 234
3725, 39, 40, 3567, 3564
3726, 3564, 3567, 3568, 3565
3727, 3565, 3568, 3569, 3566
3728, 3566, 3569, 236, 235
3729, 40, 41, 3570, 3567
3730, 3567, 3570, 3571, 3568
3731, 3568, 3571, 3572, 3569
3732, 3569, 3572, 237, 236
3733, 41, 42, 3573, 3570
3734, 3570, 3573, 3574, 3571
3735, 3571, 3574, 3575, 3572
3736, 3572, 3575, 238, 237
3737, 42, 43, 3576, 3573
3738, 3573, 3576, 3577, 3574
3739, 3574, 3577, 3578, 3575
3740, 3575, 3578, 239, 238
3741, 43, 44, 3579, 3576
3742, 3576, 3579, 3580, 3577
3743, 3577, 3580, 3581, 3578
3744, 3578, 3581, 240, 239
3745, 44, 45, 3582, 3579
3746, 3579, 3582, 3583, 3580
3747, 3580, 3583, 3584, 3581
3748, 3581, 3584, 241, 240
3749, 45, 46, 3585, 3582
3750, 3582, 3585, 3586, 3583
3751, 3583, 3586, 3587, 3584
3752, 3584, 3587, 242, 241
3753, 46, 47, 3588, 3585
3754, 3585, 3588, 3589, 3586
3755, 3586, 3589, 3590, 3587
3756, 3587, 3590, 243, 242
3757, 47, 48, 3591, 3588
3758, 3588, 3591, 3592, 3589
3759, 3589, 3592, 3593, 3590
3760, 3590, 3593, 244, 243
3761, 48, 49, 3594, 3591
3762, 3591, 3594, 3595, 3592
3763, 3592, 3595, 3596, 3593
3764, 3593, 3596, 245, 244
3765, 49, 50, 3597, 3594
3766, 3594, 3597, 3598, 3595
3767, 3595, 3598, 3599, 3596
3768, 3596, 3599, 246, 245
3769, 50, 51, 3600, 3597
3770, 3597, 3600, 3601, 3598
3771, 3598, 3601, 3602, 3599
3772, 3599, 3602, 247, 246
3773, 51, 52, 3603, 3600
3774, 3600, 3603, 3604, 3601
3775, 3601, 3604, 3605, 3602
3776, 3602, 3605, 248, 247
3777, 52, 53, 3606, 3603
3778, 3603, 3606, 3607, 3604
3779, 3604, 3607, 3608, 3605
3780, 3605, 3608, 249, 248
3781, 53, 54, 3609, 3606
3782, 3606, 3609, 3610, 3607
3783, 3607, 3610, 3611, 3608
3784, 3608, 3611, 250, 249
3785, 54, 55, 3612, 3609
3786, 3609, 3612, 3613, 3610
3787, 3610, 3613, 3614, 3611
3788, 3611, 3614, 251, 250
3789, 55, 56, 3615, 3612
3790, 3612, 3615, 3616, 3613
3791, 3613, 3616, 3617, 3614
3792, 3614, 3617, 252, 251
3793, 56, 57, 3618, 3615
3794, 3615, 3618, 3619, 3616
3795, 3616, 3619, 3620, 3617
3796, 3617, 3620, 253, 252
3797, 57, 58, 3621, 3618
3798, 3618, 3621, 3622, 3619
3799, 3619, 3622, 3623, 3620
3800, 3620, 3623, 254, 253
3801, 58, 59, 3624, 3621
3802, 3621, 3624, 3625, 3622
3803, 3622, 3625, 3626, 3623
3804, 3623, 3626, 255, 254
3805, 59, 60, 3627, 3624
3806, 3624, 3627, 3628, 3625
3807, 3625, 3628, 3629, 3626
3808, 3626, 3629, 256, 255
3809, 60, 61, 3630, 3627
3810, 3627, 3630, 3631, 3628
3811, 3628, 3631, 3632, 3629
3812, 3629, 3632, 257, 256
3813, 61, 62, 3633, 3630
3814, 3630, 3633, 3634, 3631
3815, 3631, 3634, 3635, 3632
3816, 3632, 3635, 258, 257
3817, 62, 63, 3636, 3633
3818, 3633, 3636, 3637, 3634
3819, 3634, 3637, 3638, 3635
3820, 3635, 3638, 259, 258
3821, 63, 64, 3639, 3636
3822, 3636, 3639, 3640, 3637
3823, 3637, 3640, 3641, 3638
3824, 3638, 3641, 260, 259
3825, 64, 65, 3642, 3639
3826, 3639, 3642, 3643, 3640
3827, 3640, 3643, 3644, 3641
3828, 3641, 3644, 261, 260
3829, 65, 66, 3645, 3642
3830, 3642, 3645, 3646, 3643
3831, 3643, 3646, 3647, 3644
3832, 3644, 3647, 262, 261
3833, 66, 67, 3648, 3645
3834, 3645, 3648, 3649, 3646
3835, 3646, 3649, 3650, 3647
3836, 3647, 3650, 263, 262
3837, 67, 68, 3651, 3648
3838, 3648, 3651, 3652, 3649
3839, 3649, 3652, 3653, 3650
3840, 3650, 3653, 264, 263
3841, 68, 69, 3654, 3651
3842, 3651, 3654, 3655, 3652
3843, 3652, 3655, 3656, 3653
3844, 3653, 3656, 265, 264
3845, 69, 70, 3657, 3654
3846, 3654, 3657, 3658, 3655
3847, 3655, 3658, 3659, 3656
3848, 3656, 3659, 266, 265
3849, 70, 71, 3660, 3657
3850, 3657, 3660, 3661, 3658
3851, 3658, 3661, 3662, 3659
3852, 3659, 3662, 267, 266
3853, 71, 72, 3663, 3660
3854, 3660, 3663, 3664, 3661
3855, 3661, 3664, 3665, 3662
3856, 3662, 3665, 268, 267
3857, 72, 73, 3666, 3663
3858, 3663, 3666, 3667, 3664
3859, 3664, 3667, 3668, 3665
3860, 3665, 3668, 269, 268
3861, 73, 74, 3669, 3666
3862, 3666, 3669, 3670, 3667
3863, 3667, 3670, 3671, 3668
3864, 3668, 3671, 270, 269
3865, 74, 75, 3672, 3669
3866, 3669, 3672, 3673, 3670
3867, 3670, 3673, 3674, 3671
3868, 3671, 3674, 271, 270
3869, 75, 76, 3675, 3672
3870, 3672, 3675, 3676, 3673
3871, 3673, 3676, 3677, 3674
3872, 3674, 3677, 272, 271
3873, 76, 77, 3678, 3675
3874, 3675, 3678, 3679, 3676
3875, 3676, 3679, 3680, 3677
3876, 3677, 3680, 273, 272
3877, 77, 78, 3681, 3678
3878, 3678, 3681, 3682, 3679
3879, 3679, 3682, 3683, 3680
3880, 3680, 3683, 274, 273
3881, 78, 79, 3684, 3681
3882, 3681, 3684, 3685, 3682
3883, 3682, 3685, 3686, 3683
3884, 3683, 3686, 275, 274
3885, 79, 80, 3687, 3684
3886, 3684, 3687, 3688, 3685
3887, 3685, 3688, 3689, 3686
3888, 3686, 3689, 276, 275
3889, 80, 81, 3690, 3687
3890, 3687, 3690, 3691, 3688
3891, 3688, 3691, 3692, 3689
3892, 3689, 3692, 277, 276
3893, 81, 82, 3693, 3690
3894, 3690, 3693, 3694, 3691
3895, 3691, 3694, 3695, 3692
3896, 3692, 3695, 278, 277
3897, 82, 83, 3696, 3693
3898, 3693, 3696, 3697, 3694
3899, 3694, 3697, 3698, 3695
3900, 3695, 3698, 279, 278
3901, 83, 2, 420, 3696
3902, 3696, 420, 421, 3697
3903, 3697, 421, 422, 3698
3904, 3698, 422, 6, 279
3905, 2, 84, 3699, 420
3906, 420, 3699, 3700, 421
3907, 421, 3700, 3701, 422
3908, 422, 3701, 280, 6
3909, 84, 85, 3702, 3699
3910, 3699, 3702, 3703, 3700
3911, 3700, 3703, 3704, 3701
3912, 3701, 3704, 281, 280
3913, 85, 86, 3705, 3702
3914, 3702, 3705, 3706, 3703
3915, 3703, 3706, 3707, 3704
3916, 3704, 3707, 282, 281
3917, 86, 87, 3708, 3705
3918, 3705, 3708, 3709, 3706
3919, 3706, 3709, 3710, 3707
3920, 3707, 3710, 283, 282
3921, 87, 88, 3711, 3708
3922, 3708, 3711, 3712, 3709
3923, 3709, 3712, 3713, 3710
3924, 3710, 3713, 284, 283
3925, 88, 89, 3714, 3711
3926, 3711, 3714, 3715, 3712
3927, 3712, 3715, 3716, 3713
3928, 3713, 3716, 285, 284
3929, 89, 90, 3717, 3714
3930, 3714, 3717, 3718, 3715
3931, 3715, 3718, 3719, 3716
3932, 3716, 3719, 286, 285
3933, 90, 91, 3720, 3717
3934, 3717, 3720, 3721, 3718
3935, 3718, 3721, 3722, 3719
3936, 3719, 3722, 287, 286
3937, 91, 92, 3723, 3720
3938, 3720, 3723, 3724, 3721
3939, 3721, 3724, 3725, 3722
3940, 3722, 3725, 288, 287
3941, 92, 93, 3726, 3723
3942, 3723, 3726, 3727, 3724
3943, 3724, 3727, 3728, 3725
3944, 3725, 3728, 289, 288
3945, 93, 94, 3729, 3726
3946, 3726, 3729, 3730, 3727
3947, 3727, 3730, 3731, 3728
3948, 3728, 3731, 290, 289
3949, 94, 95, 3732, 3729
3950, 3729, 3732, 3733, 3730
3951, 3730, 3733, 3734, 3731
3952, 3731, 3734, 291, 290
3953, 95, 96, 3735, 3732
3954, 3732, 3735, 3736, 3733
3955, 3733, 3736, 3737, 3734
3956, 3734, 3737, 292, 291
3957, 96, 97, 3738, 3735
3958, 3735, 3738, 3739, 3736
3959, 3736, 3739, 3740, 3737
3960, 3737, 3740, 293, 292
3961, 97, 98, 3741, 3738
3962, 3738, 3741, 3742, 3739
3963, 3739, 3742, 3743, 3740
3964, 3740, 3743, 294, 293
3965, 98, 99, 3744, 3741
3966, 3741, 3744, 3745, 3742
3967, 3742, 3745, 3746, 3743
3968, 3743, 3746, 295, 294
3969, 99, 100, 3747, 3744
3970, 3744, 3747, 3748, 3745
3971, 3745, 3748, 3749, 3746
3972, 3746, 3749, 296, 295
3973, 100, 101, 3750, 3747
3974, 3747, 3750, 3751, 3748
3975, 3748, 3751, 3752, 3749
3976, 3749, 3752, 297, 296
3977, 101, 102, 3753, 3750
3978, 3750, 3753, 3754, 3751
3979, 3751, 3754, 3755, 3752
3980, 3752, 3755, 298, 297
3981, 102, 103, 3756, 3753
3982, 3753, 3756, 3757, 3754
3983, 3754, 3757, 3758, 3755
3984, 3755, 3758, 299, 298
3985, 103, 104, 3759, 3756
3986, 3756, 3759, 3760, 3757
3987, 3757, 3760, 3761, 3758
3988, 3758, 3761, 300, 299
3989, 104, 105, 3762, 3759
3990, 3759, 3762, 3763, 3760
3991, 3760, 3763, 3764, 3761
3992, 3761, 3764, 301, 300
3993, 105, 106, 3765, 3762
3994, 3762, 3765, 3766, 3763
3995, 3763, 3766, 3767, 3764
3996, 3764, 3767, 302, 301
3997, 106, 107, 3768, 3765
3998, 3765, 3768, 3769, 3766
3999, 3766, 3769, 3770, 3767
4000, 3767, 3770, 303, 302
4001, 107, 108, 3771, 3768
4002, 3768, 3771, 3772, 3769
4003, 3769, 3772, 3773, 3770
4004, 3770, 3773, 304, 303
4005, 108, 109, 3774, 3771
4006, 3771, 3774, 3775, 3772
4007, 3772, 3775, 3776, 3773
4008, 3773, 3776, 305, 304
4009, 109, 110, 3777, 3774
4010, 3774, 3777, 3778, 3775
4011, 3775, 3778, 3779, 3776
4012, 3776, 3779, 306, 305
4013, 110, 111, 3780, 3777
4014, 3777, 3780, 3781, 3778
4015, 3778, 3781, 3782, 3779
4016, 3779, 3782, 307, 306
4017, 111, 112, 3783, 3780
4018, 3780, 3783, 3784, 3781
4019, 3781, 3784, 3785, 3782
4020, 3782, 3785, 308, 307
4021, 112, 113, 3786, 3783
4022, 3783, 3786, 3787, 3784
4023, 3784, 3787, 3788, 3785
4024, 3785, 3788, 309, 308
4025, 113, 114, 3789, 3786
4026, 3786, 3789, 3790, 3787
4027, 3787, 3790, 3791, 3788
4028, 3788, 3791, 310, 309
4029, 114, 115, 3792, 3789
4030, 3789, 3792, 3793, 3790
4031, 3790, 3793, 3794, 3791
4032, 3791, 3794, 311, 310
4033, 115, 116, 3795, 3792
4034, 3792, 3795, 3796, 3793
4035, 3793, 3796, 3797, 3794
4036, 3794, 3797, 312, 311
4037, 116, 117, 3798, 3795
4038, 3795, 3798, 3799, 3796
4039, 3796, 3799, 3800, 3797
4040, 3797, 3800, 313, 312
4041, 117, 118, 3801, 3798
4042, 3798, 3801, 3802, 3799
4043, 3799, 3802, 3803, 3800
4044, 3800, 3803, 314, 313
4045, 118, 119, 3804, 3801
4046, 3801, 3804, 3805, 3802
4047, 3802, 3805, 3806, 3803
4048, 3803, 3806, 315, 314
4049, 119, 120, 3807, 3804
4050, 3804, 3807, 3808, 3805
4051, 3805, 3808, 3809, 3806
4052, 3806, 3809, 316, 315
4053, 120, 121, 3810, 3807
4054, 3807, 3810, 3811, 3808
4055, 3808, 3811, 3812, 3809
4056, 3809, 3812, 317, 316
4057, 121, 122, 3813, 3810
4058, 3810, 3813, 3814, 3811
4059, 3811, 3814, 3815, 3812
4060, 3812, 3815, 318, 317
4061, 122, 3, 423, 3813
4062, 3813, 423, 424, 3814
4063, 3814, 424, 425, 3815
4064, 3815, 425, 7, 318
4065, 3, 123, 3816, 423
4066, 423, 3816, 3817, 424
4067, 424, 3817, 3818, 425
4068, 425, 3818, 319, 7
4069, 123, 124, 3819, 3816
4070, 3816, 3819, 3820, 3817
4071, 3817, 3820, 3821, 3818
4072, 3818, 3821, 320, 319
4073, 124, 125, 3822, 3819
4074, 3819, 3822, 3823, 3820
4075, 3820, 3823, 3824, 3821
4076, 3821, 3824, 321, 320
4077, 125, 126, 3825, 3822
4078, 3822, 3825, 3826, 3823
4079, 3823, 3826, 3827, 3824
4080, 3824, 3827, 322, 321
4081, 126, 127, 3828, 3825
4082, 3825, 3828, 3829, 3826
4083, 3826, 3829, 3830, 3827
4084, 3827, 3830, 323, 322
4085, 127, 128, 3831, 3828
4086, 3828, 3831, 3832, 3829
4087, 3829, 3832, 3833, 3830
4088, 3830, 3833, 324, 323
4089, 128, 129, 3834, 3831
4090, 3831, 3834, 3835, 3832
4091, 3832, 3835, 3836, 3833
4092, 3833, 3836, 325, 324
4093, 129, 130, 3837, 3834
4094, 3834, 3837, 3838, 3835
4095, 3835, 3838, 3839, 3836
4096, 3836, 3839, 326, 325
4097, 130, 131, 3840, 3837
4098, 3837, 3840, 3841, 3838
4099, 3838, 3841, 3842, 3839
4100, 3839, 3842, 327, 326
4101, 131, 132, 3843, 3840
4102, 3840, 3843, 3844, 3841
4103, 3841, 3844, 3845, 3842
4104, 3842, 3845, 328, 327
4105, 132, 133, 3846, 3843
4106, 3843, 3846, 3847, 3844
4107, 3844, 3847, 3848, 3845
4108, 3845, 3848, 329, 328
4109, 133, 134, 3849, 3846
4110, 3846, 3849, 3850, 3847
4111, 3847, 3850, 3851, 3848
4112, 3848, 3851, 330, 329
4113, 134, 135, 3852, 3849
4114, 3849, 3852, 3853, 3850
4115, 3850, 3853, 3854, 3851
4116, 3851, 3854, 331, 330
4117, 135, 136, 3855, 3852
4118, 3852, 3855, 3856, 3853
4119, 3853, 3856, 3857, 3854
4120, 3854, 3857, 332, 331
4121, 136, 137, 3858, 3855
4122, 3855, 3858, 3859, 3856
4123, 3856, 3859, 3860, 3857
4124, 3857, 3860, 333, 332
4125, 137, 138, 3861, 3858
4126, 3858, 3861, 3862, 3859
4127, 3859, 3862, 3863, 3860
4128, 3860, 3863, 334, 333
4129, 138, 139, 3864, 3861
4130, 3861, 3864, 3865, 3862
4131, 3862, 3865, 3866, 3863
4132, 3863, 3866, 335, 334
4133, 139, 140, 3867, 3864
4134, 3864, 3867, 3868, 3865
4135, 3865, 3868, 3869, 3866
4136, 3866, 3869, 336, 335
4137, 140, 141, 3870, 3867
4138, 3867, 3870, 3871, 3868
4139, 3868, 3871, 3872, 3869
4140, 3869, 3872, 337, 336
4141, 141, 142, 3873, 3870
4142, 3870, 3873, 3874, 3871
4143, 3871, 3874, 3875, 3872
4144, 3872, 3875, 338, 337
4145, 142, 143, 3876, 3873
4146, 3873, 3876, 3877, 3874
4147, 3874, 3877, 3878, 3875
4148, 3875, 3878, 339, 338
4149, 143, 144, 3879, 3876
4150, 3876, 3879, 3880, 3877
4151, 3877, 3880, 3881, 3878
4152, 3878, 3881, 340, 339
4153, 144, 145, 3882, 3879
4154, 3879, 3882, 3883, 3880
4155, 3880, 3883, 3884, 3881
4156, 3881, 3884, 341, 340
4157, 145, 146, 3885, 3882
4158, 3882, 3885, 3886, 3883
4159, 3883, 3886, 3887, 3884
4160, 3884, 3887, 342, 341
4161, 146, 147, 3888, 3885
4162, 3885, 3888, 3889, 3886
4163, 3886, 3889, 3890, 3887
4164, 3887, 3890, 343, 342
4165, 147, 148, 3891, 3888
4166, 3888, 3891, 3892, 3889
4167, 3889, 3892, 3893, 3890
4168, 3890, 3893, 344, 343
4169, 148, 149, 3894, 3891
4170, 3891, 3894, 3895, 3892
4171, 3892, 3895, 3896, 3893
4172, 3893, 3896, 345, 344
4173, 149, 150, 3897, 3894
4174, 3894, 3897, 3898, 3895
4175, 3895, 3898, 3899, 3896
4176, 3896, 3899, 346, 345
4177, 150, 151, 3900, 3897
4178, 3897, 3900, 3901, 3898
4179, 3898, 3901, 3902, 3899
4180, 3899, 3902, 347, 346
4181, 151, 152, 3903, 3900
4182, 3900, 3903, 3904, 3901
4183, 3901, 3904, 3905, 3902
4184, 3902, 3905, 348, 347
4185, 152, 153, 3906, 3903
4186, 3903, 3906, 3907, 3904
4187, 3904, 3907, 3908, 3905
4188, 3905, 3908, 349, 348
4189, 153, 154, 3909, 3906
4190, 3906, 3909, 3910, 3907
4191, 3907, 3910, 3911, 3908
4192, 3908, 3911, 350, 349
4193, 154, 155, 3912, 3909
4194, 3909, 3912, 3913, 3910
4195, 3910, 3913, 3914, 3911
4196, 3911, 3914, 351, 350
4197, 155, 156, 3915, 3912
4198, 3912, 3915, 3916, 3913
4199, 3913, 3916, 3917, 3914
4200, 3914, 3917, 352, 351
4201, 156, 157, 3918, 3915
4202, 3915, 3918, 3919, 3916
4203, 3916, 3919, 3920, 3917
4204, 3917, 3920, 353, 352
4205, 157, 158, 3921, 3918
4206, 3918, 3921, 3922, 3919
4207, 3919, 3922, 3923, 3920
4208, 3920, 3923, 354, 353
4209, 158, 159, 3924, 3921
4210, 3921, 3924, 3925, 3922
4211, 3922, 3925, 3926, 3923
4212, 3923, 3926, 355, 354
4213, 159, 160, 3927, 3924
4214, 3924, 3927, 3928, 3925
4215, 3925, 3928, 3929, 3926
4216, 3926, 3929, 356, 355
4217, 160, 161, 3930, 3927
4218, 3927, 3930, 3931, 3928
4219, 3928, 3931, 3932, 3929
4220, 3929, 3932, 357, 356
4221, 161, 162, 3933, 3930
4222, 3930, 3933, 3934, 3931
4223, 3931, 3934, 3935, 3932
4224, 3932, 3935, 358, 357
4225, 162, 163, 3936, 3933
4226, 3933, 3936, 3937, 3934
4227, 3934, 3937, 3938, 3935
4228, 3935, 3938, 359, 358
4229, 163, 164, 3939, 3936
4230, 3936, 3939, 3940, 3937
4231, 3937, 3940, 3941, 3938
4232, 3938, 3941, 360, 359
4233, 164, 165, 3942, 3939
4234, 3939, 3942, 3943, 3940
4235, 3940, 3943, 3944, 3941
4236, 3941, 3944, 361, 360
4237, 165, 166, 3945, 3942
4238, 3942, 3945, 3946, 3943
4239, 3943, 3946, 3947, 3944
4240, 3944, 3947, 362, 361
4241, 166, 167, 3948, 3945
4242, 3945, 3948, 3949, 3946
4243, 3946, 3949, 3950, 3947
4244, 3947, 3950, 363, 362
4245, 167, 168, 3951, 3948
4246, 3948, 3951, 3952, 3949
4247, 3949, 3952, 3953, 3950
4248, 3950, 3953, 364, 363
4249, 168, 169, 3954, 3951
4250, 3951, 3954, 3955, 3952
4251, 3952, 3955, 3956, 3953
4252, 3953, 3956, 365, 364
4253, 169, 170, 3957, 3954
4254, 3954, 3957, 3958, 3955
4255, 3955, 3958, 3959, 3956
4256, 3956, 3959, 366, 365
4257, 170, 171, 3960, 3957
4258, 3957, 3960, 3961, 3958
4259, 3958, 3961, 3962, 3959
4260, 3959, 3962, 367, 366
4261, 171, 172, 3963, 3960
4262, 3960, 3963, 3964, 3961
4263, 3961, 3964, 3965, 3962
4264, 3962, 3965, 368, 367
4265, 172, 173, 3966, 3963
4266, 3963, 3966, 3967, 3964
4267, 3964, 3967, 3968, 3965
4268, 3965, 3968, 369, 368
4269, 173, 174, 3969, 3966
4270, 3966, 3969, 3970, 3967
4271, 3967, 3970, 3971, 3968
4272, 3968, 3971, 370, 369
4273, 174, 175, 3972, 3969
4274, 3969, 3972, 3973, 3970
4275, 3970, 3973, 3974, 3971
4276, 3971, 3974, 371, 370
4277, 175, 176, 3975, 3972
4278, 3972, 3975, 3976, 3973
4279, 3973, 3976, 3977, 3974
4280, 3974, 3977, 372, 371
4281, 176, 177, 3978, 3975
4282, 3975, 3978, 3979, 3976
4283, 3976, 3979, 3980, 3977
4284, 3977, 3980, 373, 372
4285, 177, 178, 3981, 3978
4286, 3978, 3981, 3982, 3979
4287, 3979, 3982, 3983, 3980
4288, 3980, 3983, 374, 373
4289, 178, 179, 3984, 3981
4290, 3981, 3984, 3985, 3982
4291, 3982, 3985, 3986, 3983
4292, 3983, 3986, 375, 374
4293, 179, 180, 3987, 3984
4294, 3984, 3987, 3988, 3985
4295, 3985, 3988, 3989, 3986
4296, 3986, 3989, 376, 375
4297, 180, 181, 3990, 3987
4298, 3987, 3990, 3991, 3988
4299, 3988, 3991, 3992, 3989
4300, 3989, 3992, 377, 376
4301, 181, 4, 426, 3990
4302, 3990, 426, 427, 3991
4303, 3991, 427, 428, 3992
4304, 3992, 428, 8, 377
4305, 4, 182, 3993, 426
4306, 426, 3993, 3994, 427
4307, 427, 3994, 3995, 428
4308, 428, 3995, 378, 8
4309, 182, 183, 3996, 3993
4310, 3993, 3996, 3997, 3994
4311, 3994, 3997, 3998, 3995
4312, 3995, 3998, 379, 378
4313, 183, 184, 3999, 3996
4314, 3996, 3999, 4000, 3997
4315, 3997, 4000, 4001, 3998
4316, 3998, 4001, 380, 379
4317, 184, 185, 4002, 3999
4318, 3999, 4002, 4003, 4000
4319, 4000, 4003, 4004, 4001
4320, 4001, 4004, 381, 380
4321, 185, 186, 4005, 4002
4322, 4002, 4005, 4006, 4003
4323, 4003, 4006, 4007, 4004
4324, 4004, 4007, 382, 381
4325, 186, 187, 4008, 4005
4326, 4005, 4008, 4009, 4006
4327, 4006, 4009, 4010, 4007
4328, 4007, 4010, 383, 382
4329, 187, 188, 4011, 4008
4330, 4008, 4011, 4012, 4009
4331, 4009, 4012, 4013, 4010
4332, 4010, 4013, 384, 383
4333, 188, 189, 4014, 4011
4334, 4011, 4014, 4015, 4012
4335, 4012, 4015, 4016, 4013
4336, 4013, 4016, 385, 384
4337, 189, 190, 4017, 4014
4338, 4014, 4017, 4018, 4015
4339, 4015, 4018, 4019, 4016
4340, 4016, 4019, 386, 385
4341, 190, 191, 4020, 4017
4342, 4017, 4020, 4021, 4018
4343, 4018, 4021, 4022, 4019
4344, 4019, 4022, 387, 386
4345, 191, 192, 4023, 4020
4346, 4020, 4023, 4024, 4021
4347, 4021, 4024, 4025, 4022
4348, 4022, 4025, 388, 387
4349, 192, 193, 4026, 4023
4350, 4023, 4026, 4027, 4024
4351, 4024, 4027, 4028, 4025
4352, 4025, 4028, 389, 388
4353, 193, 194, 4029, 4026
4354, 4026, 4029, 4030, 4027
4355, 4027, 4030, 4031, 4028
4356, 4028, 4031, 390, 389
4357, 194, 195, 4032, 4029
4358, 4029, 4032, 4033, 4030
4359, 4030, 4033, 4034, 4031
4360, 4031, 4034, 391, 390
4361, 195, 196, 4035, 4032
4362, 4032, 4035, 4036, 4033
4363, 4033, 4036, 4037, 4034
4364, 4034, 4037, 392, 391
4365, 196, 197, 4038, 4035
4366, 4035, 4038, 4039, 4036
4367, 4036, 4039, 4040, 4037
4368, 4037, 4040, 393, 392
4369, 197, 198, 4041, 4038
4370, 4038, 4041, 4042, 4039
4371, 4039, 4042, 4043, 4040
4372, 4040, 4043, 394, 393
4373, 198, 199, 4044, 4041
4374, 4041, 4044, 4045, 4042
4375, 4042, 4045, 4046, 4043
4376, 4043, 4046, 395, 394
4377, 199, 200, 4047, 4044
4378, 4044, 4047, 4048, 4045
4379, 4045, 4048, 4049, 4046
4380, 4046, 4049, 396, 395
4381, 200, 201, 4050, 4047
4382, 4047, 4050, 4051, 4048
4383, 4048, 4051, 4052, 4049
4384, 4049, 4052, 397, 396
4385, 201, 202, 4053, 4050
4386, 4050, 4053, 4054, 4051
4387, 4051, 4054, 4055, 4052
4388, 4052, 4055, 398, 397
4389, 202, 203, 4056, 4053
4390, 4053, 4056, 4057, 4054
4391, 4054, 4057, 4058, 4055
4392, 4055, 4058, 399, 398
4393, 203, 204, 4059, 4056
4394, 4056, 4059, 4060, 4057
4395, 4057, 4060, 4061, 4058
4396, 4058, 4061, 400, 399
4397, 204, 205, 4062, 4059
4398, 4059, 4062, 4063, 4060
4399, 4060, 4063, 4064, 4061
4400, 4061, 4064, 401, 400
4401, 205, 206, 4065, 4062
4402, 4062, 4065, 4066, 4063
4403, 4063, 4066, 4067, 4064
4404, 4064, 4067, 402, 401
4405, 206, 207, 4068, 4065
4406, 4065, 4068, 4069, 4066
4407, 4066, 4069, 4070, 4067
4408, 4067, 4070, 403, 402
4409, 207, 208, 4071, 4068
4410, 4068, 4071, 4072, 4069
4411, 4069, 4072, 4073, 4070
4412, 4070, 4073, 404, 403
4413, 208, 209, 4074, 4071
4414, 4071, 4074, 4075, 4072
4415, 4072, 4075, 4076, 4073
4416, 4073, 4076, 405, 404
4417, 209, 210, 4077, 4074
4418, 4074, 4077, 4078, 4075
4419, 4075, 4078, 4079, 4076
4420, 4076, 4079, 406, 405
4421, 210, 211, 4080, 4077
4422, 4077, 4080, 4081, 4078
4423, 4078, 4081, 4082, 4079
4424, 4079, 4082, 407, 406
4425, 211, 212, 4083, 4080
4426, 4080, 4083, 4084, 4081
4427, 4081, 4084, 4085, 4082
4428, 4082, 4085, 408, 407
4429, 212, 213, 4086, 4083
4430, 4083, 4086, 4087, 4084
4431, 4084, 4087, 4088, 4085
4432, 4085, 4088, 409, 408
4433, 213, 214, 4089, 4086
4434, 4086, 4089, 4090, 4087
4435, 4087, 4090, 4091, 4088
4436, 4088, 4091, 410, 409
4437, 214, 215, 4092, 4089
4438, 4089, 4092, 4093, 4090
4439, 4090, 4093, 4094, 4091
4440, 4091, 4094, 411, 410
4441, 215, 216, 4095, 4092
4442, 4092, 4095, 4096, 4093
4443, 4093, 4096, 4097, 4094
4444, 4094, 4097, 412, 411
4445, 216, 217, 4098, 4095
4446, 4095, 4098, 4099, 4096
4447, 4096, 4099, 4100, 4097
4448, 4097, 4100, 413, 412
4449, 217, 218, 4101, 4098
4450, 4098, 4101, 4102, 4099
4451, 4099, 4102, 4103, 4100
4452, 4100, 4103, 414, 413
4453, 218, 219, 4104, 4101
4454, 4101, 4104, 4105, 4102
4455, 4102, 4105, 4106, 4103
4456, 4103, 4106, 415, 414
4457, 219, 220, 4107, 4104
4458, 4104, 4107, 4108, 4105
4459, 4105, 4108, 4109, 4106
4460, 4106, 4109, 416, 415
4461, 220, 1, 417, 4107
4462, 4107, 417, 418, 4108
4463, 4108, 418, 419, 4109
4464, 4109, 419, 5, 416
4465, 6, 280, 490, 10
4466, 280, 281, 491, 490
4467, 281, 282, 492, 491
4468, 282, 283, 493, 492
4469, 283, 284, 494, 493
4470, 284, 285, 495, 494
4471, 285, 286, 496, 495
4472, 286, 287, 497, 496
4473, 287, 288, 498, 497
4474, 288, 289, 499, 498
4475, 289, 290, 500, 499
4476, 290, 291, 501, 500
4477, 291, 292, 502, 501
4478, 292, 293, 503, 502
4479, 293, 294, 504, 503
4480, 294, 295, 505, 504
4481, 295, 296, 506, 505
4482, 296, 297, 507, 506
4483, 297, 298, 508, 507
4484, 298, 299, 509, 508
4485, 299, 300, 510, 509
4486, 300, 301, 511, 510
4487, 301, 302, 512, 511
4488, 302, 303, 513, 512
4489, 303, 304, 514, 513
4490, 304, 305, 515, 514
4491, 305, 306, 516, 515
4492, 306, 307, 517, 516
4493, 307, 308, 518, 517
4494, 308, 309, 519, 518
4495, 309, 310, 520, 519
4496, 310, 311, 521, 520
4497, 311, 312, 522, 521
4498, 312, 313, 523, 522
4499, 313, 314, 524, 523
4500, 314, 315, 525, 524
4501, 315, 316, 526, 525
4502, 316, 317, 527, 526
4503, 317, 318, 528, 527
4504, 318, 7, 11, 528
4505, 7, 319, 529, 11
4506, 319, 320, 530, 529
4507, 320, 321, 531, 530
4508, 321, 322, 532, 531
4509, 322, 323, 533, 532
4510, 323, 324, 534, 533
4511, 324, 325, 535, 534
4512, 325, 326, 536, 535
4513, 326, 327, 537, 536
4514, 327, 328, 538, 537
4515, 328, 329, 539, 538
4516, 329, 330, 540, 539
4517, 330, 331, 541, 540
4518, 331, 332, 542, 541
4519, 332, 333, 543, 542
4520, 333, 334, 544, 543
4521, 334, 335, 545, 544
4522, 335, 336, 546, 545
4523, 336, 337, 547, 546
4524, 337, 338, 548, 547
4525, 338, 339, 549, 548
4526, 339, 340, 550, 549
4527, 340, 341, 551, 550
4528, 341, 342, 552, 551
4529, 342, 343, 553, 552
4530, 343, 344, 554, 553
4531, 344, 345, 555, 554
4532, 345, 346, 556, 555
4533, 346, 347, 557, 556
4534, 347, 348, 558, 557
4535, 348, 349, 559, 558
4536, 349, 350, 560, 559
4537, 350, 351, 561, 560
4538, 351, 352, 562, 561
4539, 352, 353, 563, 562
4540, 353, 354, 564, 563
4541, 354, 355, 565, 564
4542, 355, 356, 566, 565
4543, 356, 357, 567, 566
4544, 357, 358, 568, 567
4545, 358, 359, 569, 568
4546, 359, 360, 570, 569
4547, 360, 361, 571, 570
4548, 361, 362, 572, 571
4549, 362, 363, 573, 572
4550, 363, 364, 574, 573
4551, 364, 365, 575, 574
4552, 365, 366, 576, 575
4553, 366, 367, 577, 576
4554, 367, 368, 578, 577
4555, 368, 369, 579, 578
4556, 369, 370, 580, 579
4557, 370, 371, 581, 580
4558, 371, 372, 582, 581
4559, 372, 373, 583, 582
4560, 373, 374, 584, 583
4561, 374, 375, 585, 584
4562, 375, 376, 586, 585
4563, 376, 377, 587, 586
4564, 377, 8, 12, 587
4565, 8, 378, 588, 12
4566, 378, 379, 589, 588
4567, 379, 380, 590, 589
4568, 380, 381, 591, 590
4569, 381, 382, 592, 591
4570, 382, 383, 593, 592
4571, 383, 384, 594, 593
4572, 384, 385, 595, 594
4573, 385, 386, 596, 595
4574, 386, 387, 597, 596
4575, 387, 388, 598, 597
4576, 388, 389, 599, 598
4577, 389, 390, 600, 599
4578, 390, 391, 601, 600
4579, 391, 392, 602, 601
4580, 392, 393, 603, 602
4581, 393, 394, 604, 603
4582, 394, 395, 605, 604
4583, 395, 396, 606, 605
4584, 396, 397, 607, 606
4585, 397, 398, 608, 607
4586, 398, 399, 609, 608
4587, 399, 400, 610, 609
4588, 400, 401, 611, 610
4589, 401, 402, 612, 611
4590, 402, 403, 613, 612
4591, 403, 404, 614, 613
4592, 404, 405, 615, 614
4593, 405, 406, 616, 615
4594, 406, 407, 617, 616
4595, 407, 408, 618, 617
4596, 408, 409, 619, 618
4597, 409, 410, 620, 619
4598, 410, 411, 621, 620
4599, 411, 412, 622, 621
4600, 412, 413, 623, 622
4601, 413, 414, 624, 623
4602, 414, 415, 625, 624
4603, 415, 416, 626, 625
4604, 416, 5, 9, 626
4605, 10, 490, 688, 14
4606, 490, 491, 689, 688
4607, 491, 492, 690, 689
4608, 492, 493, 691, 690
4609, 493, 494, 692, 691
4610, 494, 495, 693, 692
4611, 495, 496, 694, 693
4612, 496, 497, 695, 694
4613, 497, 498, 696, 695
4614, 498, 499, 697, 696
4615, 499, 500, 698, 697
4616, 500, 501, 699, 698
4617, 501, 502, 700, 699
4618, 502, 503, 701, 700
4619, 503, 504, 702, 701
4620, 504, 505, 703, 702
4621, 505, 506, 704, 703
4622, 506, 507, 705, 704
4623, 507, 508, 706, 705
4624, 508, 509, 707, 706
4625, 509, 510, 708, 707
4626, 510, 511, 709, 708
4627, 511, 512, 710, 709
4628, 512, 513, 711, 710
4629, 513, 514, 712, 711
4630, 514, 515, 713, 712
4631, 515, 516, 714, 713
4632, 516, 517, 715, 714
4633, 517, 518, 716, 715
4634, 518, 519, 717, 716
4635, 519, 520, 718, 717
4636, 520, 521, 719, 718
4637, 521, 522, 720, 719
4638, 522, 523, 721, 720
4639, 523, 524, 722, 721
4640, 524, 525, 723, 722
4641, 525, 526, 724, 723
4642, 526, 527, 725, 724
4643, 527, 528, 726, 725
4644, 528, 11, 15, 726
4645, 11, 529, 727, 15
4646, 529, 530, 728, 727
4647, 530, 531, 729, 728
4648, 531, 532, 730, 729
4649, 532, 533, 731, 730
4650, 533, 534, 732, 731
4651, 534, 535, 733, 732
4652, 535, 536, 734, 733
4653, 536, 537, 735, 734
4654, 537, 538, 736, 735
4655, 538, 539, 737, 736
4656, 539, 540, 738, 737
4657, 540, 541, 739, 738
4658, 541, 542, 740, 739
4659, 542, 543, 741, 740
4660, 543, 544, 742, 741
4661, 544, 545, 743, 742
4662, 545, 546, 744, 743
4663, 546, 547, 745, 744
4664, 547, 548, 746, 745
4665, 548, 549, 747, 746
4666, 549, 550, 748, 747
4667, 550, 551, 749, 748
4668, 551, 552, 750, 749
4669, 552, 553, 751, 750
4670, 553, 554, 752, 751
4671, 554, 555, 753, 752
4672, 555, 556, 754, 753
4673, 556, 557, 755, 754
4674, 557, 558, 756, 755
4675, 558, 559, 757, 756
4676, 559, 560, 758, 757
4677, 560, 561, 759, 758
4678, 561, 562, 760, 759
4679, 562, 563, 761, 760
4680, 563, 564, 762, 761
4681, 564, 565, 763, 762
4682, 565, 566, 764, 763
4683, 566, 567, 765, 764
4684, 567, 568, 766, 765
4685, 568, 569, 767, 766
4686, 569, 570, 768, 767
4687, 570, 571, 769, 768
4688, 571, 572, 770, 769
4689, 572, 573, 771, 770
4690, 573, 574, 772, 771
4691, 574, 575, 773, 772
4692, 575, 576, 774, 773
4693, 576, 577, 775, 774
4694, 577, 578, 776, 775
4695, 578, 579, 777, 776
4696, 579, 580, 778, 777
4697, 580, 581, 779, 778
4698, 581, 582, 780, 779
4699, 582, 583, 781, 780
4700, 583, 584, 782, 781
4701, 584, 585, 783, 782
4702, 585, 586, 784, 783
4703, 586, 587, 785, 784
4704, 587, 12, 16, 785
4705, 12, 588, 786, 16
4706, 588, 589, 787, 786
4707, 589, 590, 788, 787
4708, 590, 591, 789, 788
4709, 591, 592, 790, 789
4710, 592, 593, 791, 790
4711, 593, 594, 792, 791
4712, 594, 595, 793, 792
4713, 595, 596, 794, 793
4714, 596, 597, 795, 794
4715, 597, 598, 796, 795
4716, 598, 599, 797, 796
4717, 599, 600, 798, 797
4718, 600, 601, 799, 798
4719, 601, 602, 800, 799
4720, 602, 603, 801, 800
4721, 603, 604, 802, 801
4722, 604, 605, 803, 802
4723, 605, 606, 804, 803
4724, 606, 607, 805, 804
4725, 607, 608, 806, 805
4726, 608, 609, 807, 806
4727, 609, 610, 808, 807
4728, 610, 611, 809, 808
4729, 611, 612, 810, 809
4730, 612, 613, 811, 810
4731, 613, 614, 812, 811
4732, 614, 615, 813, 812
4733, 615, 616, 814, 813
4734, 616, 617, 815, 814
4735, 617, 618, 816, 815
4736, 618, 619, 817, 816
4737, 619, 620, 818, 817
4738, 620, 621, 819, 818
4739, 621, 622, 820, 819
4740, 622, 623, 821, 820
4741, 623, 624, 822, 821
4742, 624, 625, 823, 822
4743, 625, 626, 824, 823
4744, 626, 9, 13, 824
4745, 14, 688, 886, 18
4746, 688, 689, 887, 886
4747, 689, 690, 888, 887
4748, 690, 691, 889, 888
4749, 691, 692, 890, 889
4750, 692, 693, 891, 890
4751, 693, 694, 892, 891
4752, 694, 695, 893, 892
4753, 695, 696, 894, 893
4754, 696, 697, 895, 894
4755, 697, 698, 896, 895
4756, 698, 699, 897, 896
4757, 699, 700, 898, 897
4758, 700, 701, 899, 898
4759, 701, 702, 900, 899
4760, 702, 703, 901, 900
4761, 703, 704, 902, 901
4762, 704, 705, 903, 902
4763, 705, 706, 904, 903
4764, 706, 707, 905, 904
4765, 707, 708, 906, 905
4766, 708, 709, 907, 906
4767, 709, 710, 908, 907
4768, 710, 711, 909, 908
4769, 711, 712, 910, 909
4770, 712, 713, 911, 910
4771, 713, 714, 912, 911
4772, 714, 715, 913, 912
4773, 715, 716, 914, 913
4774, 716, 717, 915, 914
4775, 717, 718, 916, 915
4776, 718, 719, 917, 916
4777, 719, 720, 918, 917
4778, 720, 721, 919, 918
4779, 721, 722, 920, 919
4780, 722, 723, 921, 920
4781, 723, 724, 922, 921
4782, 724, 725, 923, 922
4783, 725, 726, 924, 923
4784, 726, 15, 19, 924
4785, 15, 727, 925, 19
4786, 727, 728, 926, 925
4787, 728, 729, 927, 926
4788, 729, 730, 928, 927
4789, 730, 731, 929, 928
4790, 731, 732, 930, 929
4791, 732, 733, 931, 930
4792, 733, 734, 932, 931
4793, 734, 735, 933, 932
4794, 735, 736, 934, 933
4795, 736, 737, 935, 934
4796, 737, 738, 936, 935
4797, 738, 739, 937, 936
4798, 739, 740, 938, 937
4799, 740, 741, 939, 938
4800, 741, 742, 940, 939
4801, 742, 743, 941, 940
4802, 743, 744, 942, 941
4803, 744, 745, 943, 942
4804, 745, 746, 944, 943
4805, 746, 747, 945, 944
4806, 747, 748, 946, 945
4807, 748, 749, 947, 946
4808, 749, 750, 948, 947
4809, 750, 751, 949, 948
4810, 751, 752, 950, 949
4811, 752, 753, 951, 950
4812, 753, 754, 952, 951
4813, 754, 755, 953, 952
4814, 755, 756, 954, 953
4815, 756, 757, 955, 954
4816, 757, 758, 956, 955
4817, 758, 759, 957, 956
4818, 759, 760, 958, 957
4819, 760, 761, 959, 958
4820, 761, 762, 960, 959
4821, 762, 763, 961, 960
4822, 763, 764, 962, 961
4823, 764, 765, 963, 962
4824, 765, 766, 964, 963
4825, 766, 767, 965, 964
4826, 767, 768, 966, 965
4827, 768, 769, 967, 966
4828, 769, 770, 968, 967
4829, 770, 771, 969, 968
4830, 771, 772, 970, 969
4831, 772, 773, 971, 970
4832, 773, 774, 972, 971
4833, 774, 775, 973, 972
4834, 775, 776, 974, 973
4835, 776, 777, 975, 974
4836, 777, 778, 976, 975
4837, 778, 779, 977, 976
4838, 779, 780, 978, 977
4839, 780, 781, 979, 978
4840, 781, 782, 980, 979
4841, 782, 783, 981, 980
4842, 783, 784, 982, 981
4843, 784, 785, 983, 982
4844, 785, 16, 20, 983
4845, 16, 786, 984, 20
4846, 786, 787, 985, 984
4847, 787, 788, 986, 985
4848, 788, 789, 987, 986
4849, 789, 790, 988, 987
4850, 790, 791, 989, 988
4851, 791, 792, 990, 989
4852, 792, 793, 991, 990
4853, 793, 794, 992, 991
4854, 794, 795, 993, 992
4855, 795, 796, 994, 993
4856, 796, 797, 995, 994
4857, 797, 798, 996, 995
4858, 798, 799, 997, 996
4859, 799, 800, 998, 997
4860, 800, 801, 999, 998
4861, 801, 802, 1000, 999
4862, 802, 803, 1001, 1000
4863, 803, 804, 1002, 1001
4864, 804, 805, 1003, 1002
4865, 805, 806, 1004, 1003
4866, 806, 807, 1005, 1004
4867, 807, 808, 1006, 1005
4868, 808, 809, 1007, 1006
4869, 809, 810, 1008, 1007
4870, 810, 811, 1009, 1008
4871, 811, 812, 1010, 1009
4872, 812, 813, 1011, 1010
4873, 813, 814, 1012, 1011
4874, 814, 815, 1013, 1012
4875, 815, 816, 1014, 1013
4876, 816, 817, 1015, 1014
4877, 817, 818, 1016, 1015
4878, 818, 819, 1017, 1016
4879, 819, 820, 1018, 1017
4880, 820, 821, 1019, 1018
4881, 821, 822, 1020, 1019
4882, 822, 823, 1021, 1020
4883, 823, 824, 1022, 1021
4884, 824, 13, 17, 1022
4885, 18, 886, 1084, 22
4886, 886, 887, 1085, 1084
4887, 887, 888, 1086, 1085
4888, 888, 889, 1087, 1086
4889, 889, 890, 1088, 1087
4890, 890, 891, 1089, 1088
4891, 891, 892, 1090, 1089
4892, 892, 893, 1091, 1090
4893, 893, 894, 1092, 1091
4894, 894, 895, 1093, 1092
4895, 895, 896, 1094, 1093
4896, 896, 897, 1095, 1094
4897, 897, 898, 1096, 1095
4898, 898, 899, 1097, 1096
4899, 899, 900, 1098, 1097
4900, 900, 901, 1099, 1098
4901, 901, 902, 1100, 1099
4902, 902, 903, 1101, 1100
4903, 903, 904, 1102, 1101
4904, 904, 905, 1103, 1102
4905, 905, 906, 1104, 1103
4906, 906, 907, 1105, 1104
4907, 907, 908, 1106, 1105
4908, 908, 909, 1107, 1106
4909, 909, 910, 1108, 1107
4910, 910, 911, 1109, 1108
4911, 911, 912, 1110, 1109
4912, 912, 913, 1111, 1110
4913, 913, 914, 1112, 1111
4914, 914, 915, 1113, 1112
4915, 915, 916, 1114, 1113
4916, 916, 917, 1115, 1114
4917, 917, 918, 1116, 1115
4918, 918, 919, 1117, 1116
4919, 919, 920, 1118, 1117
4920, 920, 921, 1119, 1118
4921, 921, 922, 1120, 1119
4922, 922, 923, 1121, 1120
4923, 923, 924, 1122, 1121
4924, 924, 19, 23, 1122
4925, 19, 925, 1123, 23
4926, 925, 926, 1124, 1123
4927, 926, 927, 1125, 1124
4928, 927, 928, 1126, 1125
4929, 928, 929, 1127, 1126
4930, 929, 930, 1128, 1127
4931, 930, 931, 1129, 1128
4932, 931, 932, 1130, 1129
4933, 932, 933, 1131, 1130
4934, 933, 934, 1132, 1131
4935, 934, 935, 1133, 1132
4936, 935, 936, 1134, 1133
4937, 936, 937, 1135, 1134
4938, 937, 938, 1136, 1135
4939, 938, 939, 1137, 1136
4940, 939, 940, 1138, 1137
4941, 940, 941, 1139, 1138
4942, 941, 942, 1140, 1139
4943, 942, 943, 1141, 1140
4944, 943, 944, 1142, 1141
4945, 944, 945, 1143, 1142
4946, 945, 946, 1144, 1143
4947, 946, 947, 1145, 1144
4948, 947, 948, 1146, 1145
4949, 948, 949, 1147, 1146
4950, 949, 950, 1148, 1147
4951, 950, 951, 1149, 1148
4952, 951, 952, 1150, 1149
4953, 952, 953, 1151, 1150
4954, 953, 954, 1152, 1151
4955, 954, 955, 1153, 1152
4956, 955, 956, 1154, 1153
4957, 956, 957, 1155, 1154
4958, 957, 958, 1156, 1155
4959, 958, 959, 1157, 1156
4960, 959, 960, 1158, 1157
4961, 960, 961, 1159, 1158
4962, 961, 962, 1160, 1159
4963, 962, 963, 1161, 1160
4964, 963, 964, 1162, 1161
4965, 964, 965, 1163, 1162
4966, 965, 966, 1164, 1163
4967, 966, 967, 1165, 1164
4968, 967, 968, 1166, 1165
4969, 968, 969, 1167, 1166
4970, 969, 970, 1168, 1167
4971, 970, 971, 1169, 1168
4972, 971, 972, 1170, 1169
4973, 972, 973, 1171, 1170
4974, 973, 974, 1172, 1171
4975, 974, 975, 1173, 1172
4976, 975, 976, 1174, 1173
4977, 976, 977, 1175, 1174
4978, 977, 978, 1176, 1175
4979, 978, 979, 1177, 1176
4980, 979, 980, 1178, 1177
4981, 980, 981, 1179, 1178
4982, 981, 982, 1180, 1179
4983, 982, 983, 1181, 1180
4984, 983, 20, 24, 1181
4985, 20, 984, 1182, 24
4986, 984, 985, 1183, 1182
4987, 985, 986, 1184, 1183
4988, 986, 987, 1185, 1184
4989, 987, 988, 1186, 1185
4990, 988, 989, 1187, 1186
4991, 989, 990, 1188, 1187
4992, 990, 991, 1189, 1188
4993, 991, 992, 1190, 1189
4994, 992, 993, 1191, 1190
4995, 993, 994, 1192, 1191
4996, 994, 995, 1193, 1192
4997, 995, 996, 1194, 1193
4998, 996, 997, 1195, 1194
4999, 997, 998, 1196, 1195
5000, 998, 999, 1197, 1196
5001, 999, 1000, 1198, 1197
5002, 1000, 1001, 1199, 1198
5003, 1001, 1002, 1200, 1199
5004, 1002, 1003, 1201, 1200
5005, 1003, 1004, 1202, 1201
5006, 1004, 1005, 1203, 1202
5007, 1005, 1006, 1204, 1203
5008, 1006, 1007, 1205, 1204
5009, 1007, 1008, 1206, 1205
5010, 1008, 1009, 1207, 1206
5011, 1009, 1010, 1208, 1207
5012, 1010, 1011, 1209, 1208
5013, 1011, 1012, 1210, 1209
5014, 1012, 1013, 1211, 1210
5015, 1013, 1014, 1212, 1211
5016, 1014, 1015, 1213, 1212
5017, 1015, 1016, 1214, 1213
5018, 1016, 1017, 1215, 1214
5019, 1017, 1018, 1216, 1215
5020, 1018, 1019, 1217, 1216
5021, 1019, 1020, 1218, 1217
5022, 1020, 1021, 1219, 1218
5023, 1021, 1022, 1220, 1219
5024, 1022, 17, 21, 1220
